*SPEF "IEEE 1481-1998"
*DESIGN "alarm_clock_top"
*DATE "Sat Mar  7 16:59:43 2026"
*VENDOR "Cadence Design Systems, Inc."
*PROGRAM "Innovus"
*VERSION "21.15-s110_1"
*DESIGN_FLOW "COUPLING C" "PIN_CAP NONE" "NAME_SCOPE LOCAL"
*DIVIDER /
*DELIMITER :
*BUS_DELIMITER []
*T_UNIT 1 NS
*C_UNIT 1 PF
*R_UNIT 1 OHM
*L_UNIT 1 HENRY

// MMMC spef file for corner 'rc_corners'

*NAME_MAP

*1 ar/FE_PHN123_alarm_sec_2
*2 tg/FE_PHN122_div_cnt_23
*3 tg/FE_PHN121_div_cnt_20
*4 tg/FE_PHN120_div_cnt_25
*5 tc/FE_PHN119_n_31
*6 tc/FE_PHN118_n_41
*7 tg/FE_PHN117_n_54
*8 tg/FE_PHN116_n_53
*9 tg/FE_PHN115_n_51
*10 tc/FE_PHN114_n_65
*11 tc/FE_PHN113_n_67
*12 tg/FE_PHN112_n_61
*13 tg/FE_PHN111_n_59
*14 tg/FE_PHN110_n_57
*15 tg/FE_PHN109_n_58
*16 tg/FE_PHN108_n_60
*17 tg/FE_PHN107_div_cnt_13
*18 tg/FE_PHN106_div_cnt_3
*19 tc/FE_PHN105_min_0
*20 tc/FE_PHN104_sec_3
*21 tg/FE_PHN103_div_cnt_10
*22 tg/FE_PHN102_div_cnt_18
*23 tg/FE_PHN101_div_cnt_20
*24 tg/FE_PHN100_div_cnt_19
*25 ac/FE_PHN99_alarm_cnt_1
*26 ac/FE_PHN98_alarm_cnt_0
*27 tg/FE_PHN97_div_cnt_12
*28 tc/FE_PHN96_n_14
*29 tc/FE_PHN95_hour_2
*30 tc/FE_PHN94_hour_1
*31 tg/FE_PHN93_div_cnt_17
*32 tg/FE_PHN92_div_cnt_16
*33 tg/FE_PHN91_div_cnt_19
*34 tg/FE_PHN90_div_cnt_18
*35 tg/FE_PHN89_inc_add_20_32_n_1
*36 ac/FE_PHN88_n_54
*37 tc/FE_PHN87_n_65
*38 tc/FE_PHN86_n_50
*39 tg/FE_PHN85_n_10
*40 tg/FE_PHN84_n_57
*41 tg/FE_PHN83_n_59
*42 tg/FE_PHN82_n_61
*43 tg/FE_PHN81_n_58
*44 tg/FE_PHN80_n_60
*45 tc/FE_PHN79_n_48
*46 tc/FE_PHN78_n_29
*47 tg/FE_PHN77_n_56
*48 tc/FE_PHN76_n_27
*49 tg/FE_PHN75_n_11
*50 tg/FE_PHN74_n_41
*51 tg/FE_PHN73_n_49
*52 tg/FE_PHN72_n_50
*53 tg/FE_PHN71_n_51
*54 tc/FE_PHN70_n_67
*55 tg/FE_PHN69_n_43
*56 tg/FE_PHN68_n_48
*57 tg/FE_PHN67_n_46
*58 tg/FE_PHN66_n_18
*59 tc/FE_PHN65_n_53
*60 tc/FE_PHN64_n_51
*61 tc/FE_PHN63_sec_3
*62 tg/FE_PHN62_div_cnt_3
*63 ac/FE_PHN61_alarm_cnt_1
*64 ac/FE_PHN60_alarm_cnt_0
*65 tg/FE_PHN59_div_cnt_17
*66 tc/FE_PHN58_min_0
*67 tg/FE_PHN57_div_cnt_15
*68 tg/FE_PHN56_div_cnt_16
*69 tc/FE_PHN55_sec_4
*70 tc/FE_PHN54_min_1
*71 tg/FE_PHN53_div_cnt_14
*72 tc/FE_PHN52_sec_2
*73 tc/FE_PHN51_hour_2
*74 tc/FE_PHN50_n_22
*75 tc/FE_PHN49_hour_1
*76 tg/FE_PHN48_div_cnt_9
*77 ar/FE_PHN47_alarm_min_5
*78 tc/FE_PHN46_n_14
*79 FE_PHN45_alarm_min_4
*80 tg/FE_PHN44_div_cnt_15
*81 tc/FE_PHN43_min_3
*82 FE_PHN42_alarm_hour_4
*83 tg/FE_PHN41_div_cnt_10
*84 tg/FE_PHN40_div_cnt_14
*85 tg/FE_PHN39_div_cnt_12
*86 FE_PHN38_alarm_min_5
*87 tg/FE_PHN37_div_cnt_13
*88 tc/FE_PHN36_sec_0
*89 tc/FE_PHN35_sec_1
*90 tc/FE_PHN34_sec_5
*91 tc/FE_PHN33_sec_4
*92 tc/FE_PHN32_min_5
*93 tc/FE_PHN31_hour_0
*94 tg/FE_PHN30_div_cnt_9
*95 tc/FE_PHN29_min_2
*96 ar/FE_PHN28_alarm_min_0
*97 ar/FE_PHN27_alarm_sec_1
*98 ar/FE_PHN26_alarm_sec_3
*99 ar/FE_PHN25_alarm_hour_1
*100 ar/FE_PHN24_alarm_hour_0
*101 ar/FE_PHN23_alarm_sec_4
*102 ar/FE_PHN22_alarm_sec_2
*103 FE_PHN21_alarm_min_4
*104 tc/FE_PHN20_min_4
*105 ar/FE_PHN19_alarm_hour_3
*106 ar/FE_PHN18_alarm_hour_2
*107 ar/FE_PHN17_alarm_sec_0
*108 ar/FE_PHN16_alarm_min_3
*109 ar/FE_PHN15_alarm_min_2
*110 ar/FE_PHN14_alarm_min_1
*111 ar/FE_PHN13_alarm_sec_5
*112 FE_PHN12_tick_1s
*113 tg/FE_PHN11_div_cnt_2
*114 tg/FE_PHN10_div_cnt_11
*115 tg/FE_PHN9_div_cnt_5
*116 tg/FE_PHN8_div_cnt_7
*117 tg/FE_PHN7_div_cnt_4
*118 ar/FE_RN_2
*119 tg/FE_PHN5_div_cnt_0
*120 ac/FE_PHN4_state_0
*121 tg/FE_PHN3_div_cnt_8
*122 tg/FE_PHN2_div_cnt_6
*123 ac/FE_PHN1_state_1
*124 tg/FE_PHN0_div_cnt_1
*125 clk
*126 reset
*127 alarm_set
*128 set_hour[4]
*129 set_hour[3]
*130 set_hour[2]
*131 set_hour[1]
*132 set_hour[0]
*133 set_min[5]
*134 set_min[4]
*135 set_min[3]
*136 set_min[2]
*137 set_min[1]
*138 set_min[0]
*139 set_sec[5]
*140 set_sec[4]
*141 set_sec[3]
*142 set_sec[2]
*143 set_sec[1]
*144 set_sec[0]
*145 hour[4]
*146 hour[3]
*147 hour[2]
*148 hour[1]
*149 hour[0]
*150 min[5]
*151 min[4]
*152 min[3]
*153 min[2]
*154 min[1]
*155 min[0]
*156 sec[5]
*157 sec[4]
*158 sec[3]
*159 sec[2]
*160 sec[1]
*161 sec[0]
*162 alarm_hour[4]
*163 alarm_hour[3]
*164 alarm_hour[2]
*165 alarm_hour[1]
*166 alarm_hour[0]
*167 alarm_min[5]
*168 alarm_min[4]
*169 alarm_min[3]
*170 alarm_min[2]
*171 alarm_min[1]
*172 alarm_min[0]
*173 alarm_sec[5]
*174 alarm_sec[4]
*175 alarm_sec[3]
*176 alarm_sec[2]
*177 alarm_sec[1]
*178 alarm_sec[0]
*179 alarm_on
*180 alarm_enable
*181 tick_1s
*182 ac/state[1]
*183 ac/state[0]
*184 ac/alarm_cnt[1]
*185 ac/alarm_cnt[0]
*186 ac/n_0
*187 ac/n_1
*188 ac/n_2
*189 ac/n_3
*190 ac/n_4
*191 ac/n_5
*192 ac/n_6
*193 ac/n_7
*194 ac/n_8
*195 ac/n_9
*196 ac/n_10
*197 ac/n_11
*198 ac/n_12
*199 ac/n_13
*200 ac/n_14
*201 ac/n_15
*202 ac/n_16
*203 ac/n_17
*204 ac/n_18
*205 ac/n_19
*206 ac/n_20
*207 ac/n_21
*208 ac/n_22
*209 ac/n_23
*210 ac/n_24
*211 ac/n_25
*212 ac/n_26
*213 ac/n_27
*214 ac/n_28
*215 ac/n_29
*216 ac/n_30
*217 ac/n_31
*218 ac/n_32
*219 ac/n_33
*220 ac/n_34
*221 ac/n_35
*222 ac/n_36
*223 ac/n_37
*224 ac/n_38
*225 ac/n_39
*226 ac/n_40
*227 ac/n_41
*228 ac/n_42
*229 ac/n_43
*230 ac/n_44
*231 ac/n_45
*232 ac/n_46
*233 ac/n_47
*234 ac/n_48
*235 ac/n_49
*236 ac/n_50
*237 ac/n_51
*238 ac/n_52
*239 ac/n_53
*240 ac/n_54
*241 ac/n_55
*242 ac/n_56
*243 ac/n_57
*244 ac/n_58
*245 ac/n_59
*246 ar/n_0
*247 ar/n_1
*248 ar/n_2
*249 ar/n_3
*250 ar/n_4
*251 ar/n_5
*252 ar/n_6
*253 ar/n_7
*254 ar/n_8
*255 ar/n_9
*256 ar/n_10
*257 ar/n_11
*258 ar/n_12
*259 ar/n_13
*260 ar/n_14
*261 ar/n_15
*262 ar/n_16
*263 ar/n_17
*264 ar/n_18
*265 ar/n_19
*266 ar/n_20
*267 ar/n_21
*268 ar/n_22
*269 ar/n_23
*270 ar/n_24
*271 ar/n_25
*272 ar/n_26
*273 ar/n_27
*274 ar/n_28
*275 ar/n_29
*276 ar/n_30
*277 ar/n_31
*278 ar/n_32
*279 ar/n_33
*280 ar/n_34
*281 ar/n_35
*282 tc/n_0
*283 tc/n_1
*284 tc/n_2
*285 tc/n_3
*286 tc/n_4
*287 tc/n_5
*288 tc/n_6
*289 tc/n_7
*290 tc/n_8
*291 tc/n_9
*292 tc/n_10
*293 tc/n_11
*294 tc/n_12
*295 tc/n_13
*296 tc/n_14
*297 tc/n_15
*298 tc/n_16
*299 tc/n_17
*300 tc/n_18
*301 tc/n_19
*302 tc/n_20
*303 tc/n_21
*304 tc/n_22
*305 tc/n_23
*306 tc/n_24
*307 tc/n_25
*308 tc/n_26
*309 tc/n_27
*310 tc/n_28
*311 tc/n_29
*312 tc/n_30
*313 tc/n_31
*314 tc/n_32
*315 tc/n_33
*316 tc/n_34
*317 tc/n_35
*318 tc/n_36
*319 tc/n_37
*320 tc/n_38
*321 tc/n_39
*322 tc/n_40
*323 tc/n_41
*324 tc/n_42
*325 tc/n_43
*326 tc/n_44
*327 tc/n_45
*328 tc/n_46
*329 tc/n_47
*330 tc/n_48
*331 tc/n_49
*332 tc/n_50
*333 tc/n_51
*334 tc/n_52
*335 tc/n_53
*336 tc/n_54
*337 tc/n_55
*338 tc/n_56
*339 tc/n_57
*340 tc/n_58
*341 tc/n_59
*342 tc/n_60
*343 tc/n_61
*344 tc/n_62
*345 tc/n_63
*346 tc/n_64
*347 tc/n_65
*348 tc/n_66
*349 tc/n_67
*350 tg/div_cnt[25]
*351 tg/div_cnt[24]
*352 tg/div_cnt[23]
*353 tg/div_cnt[22]
*354 tg/div_cnt[21]
*355 tg/div_cnt[20]
*356 tg/div_cnt[19]
*357 tg/div_cnt[18]
*358 tg/div_cnt[17]
*359 tg/div_cnt[16]
*360 tg/div_cnt[15]
*361 tg/div_cnt[14]
*362 tg/div_cnt[13]
*363 tg/div_cnt[12]
*364 tg/div_cnt[11]
*365 tg/div_cnt[10]
*366 tg/div_cnt[9]
*367 tg/div_cnt[8]
*368 tg/div_cnt[7]
*369 tg/div_cnt[6]
*370 tg/div_cnt[5]
*371 tg/div_cnt[4]
*372 tg/div_cnt[3]
*373 tg/div_cnt[2]
*374 tg/div_cnt[1]
*375 tg/div_cnt[0]
*376 tg/inc_add_20_32_n_0
*377 tg/inc_add_20_32_n_1
*378 tg/inc_add_20_32_n_2
*379 tg/inc_add_20_32_n_3
*380 tg/inc_add_20_32_n_4
*381 tg/inc_add_20_32_n_5
*382 tg/inc_add_20_32_n_7
*383 tg/inc_add_20_32_n_8
*384 tg/inc_add_20_32_n_9
*385 tg/inc_add_20_32_n_10
*386 tg/inc_add_20_32_n_11
*387 tg/inc_add_20_32_n_12
*388 tg/inc_add_20_32_n_13
*389 tg/inc_add_20_32_n_15
*390 tg/inc_add_20_32_n_16
*391 tg/inc_add_20_32_n_17
*392 tg/inc_add_20_32_n_18
*393 tg/inc_add_20_32_n_20
*394 tg/inc_add_20_32_n_21
*395 tg/inc_add_20_32_n_22
*396 tg/inc_add_20_32_n_23
*397 tg/inc_add_20_32_n_26
*398 tg/inc_add_20_32_n_27
*399 tg/inc_add_20_32_n_28
*400 tg/inc_add_20_32_n_30
*401 tg/inc_add_20_32_n_32
*402 tg/inc_add_20_32_n_33
*403 tg/inc_add_20_32_n_34
*404 tg/inc_add_20_32_n_35
*405 tg/inc_add_20_32_n_39
*406 tg/inc_add_20_32_n_40
*407 tg/inc_add_20_32_n_41
*408 tg/inc_add_20_32_n_42
*409 tg/inc_add_20_32_n_43
*410 tg/inc_add_20_32_n_48
*411 tg/inc_add_20_32_n_49
*412 tg/inc_add_20_32_n_52
*413 tg/inc_add_20_32_n_54
*414 tg/inc_add_20_32_n_55
*415 tg/inc_add_20_32_n_56
*416 tg/inc_add_20_32_n_60
*417 tg/inc_add_20_32_n_62
*418 tg/inc_add_20_32_n_64
*419 tg/inc_add_20_32_n_66
*420 tg/inc_add_20_32_n_68
*421 tg/n_0
*422 tg/n_1
*423 tg/n_2
*424 tg/n_3
*425 tg/n_4
*426 tg/n_5
*427 tg/n_6
*428 tg/n_7
*429 tg/n_8
*430 tg/n_9
*431 tg/n_10
*432 tg/n_11
*433 tg/n_12
*434 tg/n_14
*435 tg/n_15
*436 tg/n_16
*437 tg/n_17
*438 tg/n_18
*439 tg/n_19
*440 tg/n_21
*441 tg/n_22
*442 tg/n_23
*443 tg/n_24
*444 tg/n_25
*445 tg/n_26
*446 tg/n_27
*447 tg/n_28
*448 tg/n_29
*449 tg/n_30
*450 tg/n_31
*451 tg/n_32
*452 tg/n_33
*453 tg/n_34
*454 tg/n_35
*455 tg/n_36
*456 tg/n_37
*457 tg/n_38
*458 tg/n_39
*459 tg/n_40
*460 tg/n_41
*461 tg/n_42
*462 tg/n_43
*463 tg/n_44
*464 tg/n_46
*465 tg/n_47
*466 tg/n_48
*467 tg/n_49
*468 tg/n_50
*469 tg/n_51
*470 tg/n_53
*471 tg/n_54
*472 tg/n_55
*473 tg/n_56
*474 tg/n_57
*475 tg/n_58
*476 tg/n_59
*477 tg/n_60
*478 tg/n_61
*479 tg/n_62
*480 tg/n_97
*481 tg/n_98
*482 FE_PHC12_tick_1s
*483 ac/FE_PHC99_alarm_cnt_1
*484 ac/FE_PHC98_alarm_cnt_0
*485 ac/FE_PHC88_n_54
*486 ac/FE_PHC61_alarm_cnt_1
*487 ac/FE_PHC60_alarm_cnt_0
*488 ac/FE_PHC4_state_0
*489 ac/FE_PHC1_state_1
*490 ac/alarm_on_reg
*491 ac/g613__2398
*492 ac/g614__5107
*493 ac/alarm_cnt_reg\[0\]
*494 ac/alarm_cnt_reg\[1\]
*495 ac/state_reg\[0\]
*496 ac/state_reg\[1\]
*497 ac/g1693__6260
*498 ac/g1694__4319
*499 ac/g1695__8428
*500 ac/g1696__5526
*501 ac/g1697__6783
*502 ac/g1698__3680
*503 ac/g1699__1617
*504 ac/g1700__2802
*505 ac/g1701__1705
*506 ac/g1702__5122
*507 ac/g1703__8246
*508 ac/g1704__7098
*509 ac/g1705__6131
*510 ac/g1706__1881
*511 ac/g1707__5115
*512 ac/g1708__7482
*513 ac/g1709__4733
*514 ac/g1710__6161
*515 ac/g1711__9315
*516 ac/g1712__9945
*517 ac/g1713__2883
*518 ac/g1714__2346
*519 ac/g1715__1666
*520 ac/g1716__7410
*521 ac/g1717__6417
*522 ac/g1718__5477
*523 ac/g1719__2398
*524 ac/g1720__5107
*525 ac/g1721__6260
*526 ac/g1722__4319
*527 ac/g1723__8428
*528 ac/g1724__5526
*529 ac/g1725__6783
*530 ac/g1726__3680
*531 ac/g1727__1617
*532 ac/g1728__2802
*533 ac/g1729__1705
*534 ac/g1730__5122
*535 ac/g1731
*536 ac/g1732
*537 ac/g1733
*538 ac/g1734
*539 ac/g1735
*540 ac/g1736
*541 ac/g1737
*542 ac/g1738
*543 ac/g1739
*544 ac/g1743
*545 ac/g1744
*546 ac/g1745
*547 ac/g1746
*548 ac/g1747
*549 ac/g1748
*550 ac/g1749
*551 ac/g1750
*552 ac/g1751
*553 ac/g1752
*554 ac/g1753
*555 ar/FE_PHC123_alarm_sec_2
*556 ar/FE_PHC47_alarm_min_5
*557 ar/FE_PHC45_alarm_min_4
*558 ar/FE_PHC42_alarm_hour_4
*559 ar/FE_PHC38_alarm_min_5
*560 ar/FE_PHC28_alarm_min_0
*561 ar/FE_PHC27_alarm_sec_1
*562 ar/FE_PHC26_alarm_sec_3
*563 ar/FE_PHC25_alarm_hour_1
*564 ar/FE_PHC24_alarm_hour_0
*565 ar/FE_PHC23_alarm_sec_4
*566 ar/FE_PHC22_alarm_sec_2
*567 ar/FE_PHC21_alarm_min_4
*568 ar/FE_PHC19_alarm_hour_3
*569 ar/FE_PHC18_alarm_hour_2
*570 ar/FE_PHC17_alarm_sec_0
*571 ar/FE_PHC16_alarm_min_3
*572 ar/FE_PHC15_alarm_min_2
*573 ar/FE_PHC14_alarm_min_1
*574 ar/FE_PHC13_alarm_sec_5
*575 ar/FE_PHC6_alarm_enable
*576 ar/alarm_min_reg\[4\]
*577 ar/alarm_hour_reg\[3\]
*578 ar/alarm_hour_reg\[4\]
*579 ar/alarm_sec_reg\[5\]
*580 ar/alarm_min_reg\[0\]
*581 ar/alarm_min_reg\[1\]
*582 ar/alarm_min_reg\[2\]
*583 ar/alarm_min_reg\[3\]
*584 ar/alarm_hour_reg\[0\]
*585 ar/alarm_enable_reg
*586 ar/alarm_min_reg\[5\]
*587 ar/alarm_sec_reg\[0\]
*588 ar/alarm_sec_reg\[1\]
*589 ar/alarm_hour_reg\[2\]
*590 ar/alarm_sec_reg\[2\]
*591 ar/alarm_sec_reg\[3\]
*592 ar/alarm_sec_reg\[4\]
*593 ar/alarm_hour_reg\[1\]
*594 ar/g70__8246
*595 ar/g71__7098
*596 ar/g72__6131
*597 ar/g73__1881
*598 ar/g74__5115
*599 ar/g75__7482
*600 ar/g76__4733
*601 ar/g77__6161
*602 ar/g78__9315
*603 ar/g79__9945
*604 ar/g80__2883
*605 ar/g81__2346
*606 ar/g82__1666
*607 ar/g83__7410
*608 ar/g84__6417
*609 ar/g85__5477
*610 ar/g86__2398
*611 ar/g87__5107
*612 ar/g88__6260
*613 ar/g89__4319
*614 ar/g90__8428
*615 ar/g91__5526
*616 ar/g92__6783
*617 ar/g93__3680
*618 ar/g94__1617
*619 ar/g95__2802
*620 ar/g96__1705
*621 ar/g97__5122
*622 ar/g98__8246
*623 ar/g99__7098
*624 ar/g100__6131
*625 ar/g101__1881
*626 ar/g102__5115
*627 ar/g103__7482
*628 ar/g104__4733
*629 ar/g105
*630 tc/FE_PHC119_n_31
*631 tc/FE_PHC118_n_41
*632 tc/FE_PHC114_n_65
*633 tc/FE_PHC113_n_67
*634 tc/FE_PHC105_min_0
*635 tc/FE_PHC104_sec_3
*636 tc/FE_PHC96_n_14
*637 tc/FE_PHC95_hour_2
*638 tc/FE_PHC94_hour_1
*639 tc/FE_PHC87_n_65
*640 tc/FE_PHC86_n_50
*641 tc/FE_PHC79_n_48
*642 tc/FE_PHC78_n_29
*643 tc/FE_PHC76_n_27
*644 tc/FE_PHC70_n_67
*645 tc/FE_PHC65_n_53
*646 tc/FE_PHC64_n_51
*647 tc/FE_PHC63_sec_3
*648 tc/FE_PHC58_min_0
*649 tc/FE_PHC55_sec_4
*650 tc/FE_PHC54_min_1
*651 tc/FE_PHC52_sec_2
*652 tc/FE_PHC51_hour_2
*653 tc/FE_PHC50_n_22
*654 tc/FE_PHC49_hour_1
*655 tc/FE_PHC46_n_14
*656 tc/FE_PHC43_min_3
*657 tc/FE_PHC36_sec_0
*658 tc/FE_PHC35_sec_1
*659 tc/FE_PHC34_sec_5
*660 tc/FE_PHC33_sec_4
*661 tc/FE_PHC32_min_5
*662 tc/FE_PHC31_hour_0
*663 tc/FE_PHC29_min_2
*664 tc/FE_PHC20_min_4
*665 tc/hour_reg\[0\]
*666 tc/hour_reg\[1\]
*667 tc/hour_reg\[2\]
*668 tc/hour_reg\[3\]
*669 tc/hour_reg\[4\]
*670 tc/min_reg\[0\]
*671 tc/min_reg\[1\]
*672 tc/min_reg\[2\]
*673 tc/min_reg\[3\]
*674 tc/min_reg\[4\]
*675 tc/min_reg\[5\]
*676 tc/sec_reg\[0\]
*677 tc/sec_reg\[1\]
*678 tc/sec_reg\[2\]
*679 tc/sec_reg\[3\]
*680 tc/sec_reg\[4\]
*681 tc/sec_reg\[5\]
*682 tc/g1763
*683 tc/g1764__6161
*684 tc/g1765__9315
*685 tc/g1767
*686 tc/g1768__9945
*687 tc/g1769__2883
*688 tc/g1770__2346
*689 tc/g1772__1666
*690 tc/g1773__7410
*691 tc/g1774__6417
*692 tc/g1775__5477
*693 tc/g1778__2398
*694 tc/g1781__5107
*695 tc/g1782__6260
*696 tc/g1784__4319
*697 tc/g1785__8428
*698 tc/g1786__5526
*699 tc/g1787__6783
*700 tc/g1788__3680
*701 tc/g1789__1617
*702 tc/g1790__2802
*703 tc/g1791__1705
*704 tc/g1792__5122
*705 tc/g1794__8246
*706 tc/g1795__7098
*707 tc/g1796__6131
*708 tc/g1797__1881
*709 tc/g1798__5115
*710 tc/g1799__7482
*711 tc/g1800__4733
*712 tc/g1801
*713 tc/g1804__6161
*714 tc/g1806__9315
*715 tc/g1808__9945
*716 tc/g1809__2883
*717 tc/g1810__2346
*718 tc/g1811__1666
*719 tc/g1813__7410
*720 tc/g1814__6417
*721 tc/g1815__5477
*722 tc/g1816__2398
*723 tc/g1817__5107
*724 tc/g1819__6260
*725 tc/g1820__4319
*726 tc/g1821__8428
*727 tc/g1822__5526
*728 tc/g1823__6783
*729 tc/g1824__3680
*730 tc/g1825__1617
*731 tc/g1826
*732 tc/g1828__2802
*733 tc/g1829__1705
*734 tc/g1830__5122
*735 tc/g1831__8246
*736 tc/g1833__7098
*737 tc/g1834__6131
*738 tc/g1835__1881
*739 tc/g1836__5115
*740 tc/g1837__7482
*741 tc/g1838__4733
*742 tc/g1839__6161
*743 tc/g1840__9315
*744 tc/g1841__9945
*745 tc/g1853
*746 tc/g1862
*747 tc/g1863
*748 tc/g1874
*749 tc/g2__2883
*750 tg/FE_PHC122_div_cnt_23
*751 tg/FE_PHC121_div_cnt_20
*752 tg/FE_PHC120_div_cnt_25
*753 tg/FE_PHC117_n_54
*754 tg/FE_PHC116_n_53
*755 tg/FE_PHC115_n_51
*756 tg/FE_PHC112_n_61
*757 tg/FE_PHC111_n_59
*758 tg/FE_PHC110_n_57
*759 tg/FE_PHC109_n_58
*760 tg/FE_PHC108_n_60
*761 tg/FE_PHC107_div_cnt_13
*762 tg/FE_PHC106_div_cnt_3
*763 tg/FE_PHC103_div_cnt_10
*764 tg/FE_PHC102_div_cnt_18
*765 tg/FE_PHC101_div_cnt_20
*766 tg/FE_PHC100_div_cnt_19
*767 tg/FE_PHC97_div_cnt_12
*768 tg/FE_PHC93_div_cnt_17
*769 tg/FE_PHC92_div_cnt_16
*770 tg/FE_PHC91_div_cnt_19
*771 tg/FE_PHC90_div_cnt_18
*772 tg/FE_PHC89_inc_add_20_32_n_1
*773 tg/FE_PHC85_n_10
*774 tg/FE_PHC84_n_57
*775 tg/FE_PHC83_n_59
*776 tg/FE_PHC82_n_61
*777 tg/FE_PHC81_n_58
*778 tg/FE_PHC80_n_60
*779 tg/FE_PHC77_n_56
*780 tg/FE_PHC75_n_11
*781 tg/FE_PHC74_n_41
*782 tg/FE_PHC73_n_49
*783 tg/FE_PHC72_n_50
*784 tg/FE_PHC71_n_51
*785 tg/FE_PHC69_n_43
*786 tg/FE_PHC68_n_48
*787 tg/FE_PHC67_n_46
*788 tg/FE_PHC66_n_18
*789 tg/FE_PHC62_div_cnt_3
*790 tg/FE_PHC59_div_cnt_17
*791 tg/FE_PHC57_div_cnt_15
*792 tg/FE_PHC56_div_cnt_16
*793 tg/FE_PHC53_div_cnt_14
*794 tg/FE_PHC48_div_cnt_9
*795 tg/FE_PHC44_div_cnt_15
*796 tg/FE_PHC41_div_cnt_10
*797 tg/FE_PHC40_div_cnt_14
*798 tg/FE_PHC39_div_cnt_12
*799 tg/FE_PHC37_div_cnt_13
*800 tg/FE_PHC30_div_cnt_9
*801 tg/FE_PHC11_div_cnt_2
*802 tg/FE_PHC10_div_cnt_11
*803 tg/FE_PHC9_div_cnt_5
*804 tg/FE_PHC8_div_cnt_7
*805 tg/FE_PHC7_div_cnt_4
*806 tg/FE_PHC5_div_cnt_0
*807 tg/FE_PHC3_div_cnt_8
*808 tg/FE_PHC2_div_cnt_6
*809 tg/FE_PHC0_div_cnt_1
*810 tg/tick_1s_reg
*811 tg/g951__2346
*812 tg/g952__1666
*813 tg/g953__7410
*814 tg/g954__6417
*815 tg/g955__5477
*816 tg/g956__2398
*817 tg/g957__5107
*818 tg/g958__6260
*819 tg/g959__4319
*820 tg/g960__8428
*821 tg/g961__5526
*822 tg/g2__6783
*823 tg/div_cnt_reg\[10\]
*824 tg/div_cnt_reg\[5\]
*825 tg/div_cnt_reg\[6\]
*826 tg/div_cnt_reg\[7\]
*827 tg/div_cnt_reg\[8\]
*828 tg/div_cnt_reg\[9\]
*829 tg/div_cnt_reg\[4\]
*830 tg/div_cnt_reg\[11\]
*831 tg/div_cnt_reg\[12\]
*832 tg/div_cnt_reg\[13\]
*833 tg/div_cnt_reg\[14\]
*834 tg/div_cnt_reg\[15\]
*835 tg/div_cnt_reg\[0\]
*836 tg/div_cnt_reg\[16\]
*837 tg/div_cnt_reg\[17\]
*838 tg/div_cnt_reg\[18\]
*839 tg/div_cnt_reg\[19\]
*840 tg/div_cnt_reg\[1\]
*841 tg/div_cnt_reg\[20\]
*842 tg/div_cnt_reg\[21\]
*843 tg/div_cnt_reg\[22\]
*844 tg/div_cnt_reg\[23\]
*845 tg/div_cnt_reg\[24\]
*846 tg/div_cnt_reg\[25\]
*847 tg/div_cnt_reg\[2\]
*848 tg/div_cnt_reg\[3\]
*849 tg/g720__3680
*850 tg/g721__1617
*851 tg/g722__2802
*852 tg/g723__1705
*853 tg/g724__5122
*854 tg/g726__7098
*855 tg/g727__6131
*856 tg/g728__1881
*857 tg/g729__5115
*858 tg/g730__7482
*859 tg/g731__4733
*860 tg/g733__9315
*861 tg/g734__9945
*862 tg/g735__2883
*863 tg/g736__2346
*864 tg/g737__1666
*865 tg/g738__7410
*866 tg/g739__6417
*867 tg/g740__5477
*868 tg/g741__2398
*869 tg/g742__5107
*870 tg/g743__6260
*871 tg/g744__4319
*872 tg/g745__8428
*873 tg/inc_add_20_32_g393__5526
*874 tg/inc_add_20_32_g394__6783
*875 tg/inc_add_20_32_g395__3680
*876 tg/inc_add_20_32_g396__1617
*877 tg/inc_add_20_32_g397__2802
*878 tg/inc_add_20_32_g398__1705
*879 tg/inc_add_20_32_g399__5122
*880 tg/inc_add_20_32_g400__8246
*881 tg/inc_add_20_32_g401__7098
*882 tg/inc_add_20_32_g402__6131
*883 tg/inc_add_20_32_g403__1881
*884 tg/inc_add_20_32_g404__5115
*885 tg/inc_add_20_32_g405__7482
*886 tg/inc_add_20_32_g406__4733
*887 tg/inc_add_20_32_g407__6161
*888 tg/inc_add_20_32_g408__9315
*889 tg/inc_add_20_32_g409__9945
*890 tg/inc_add_20_32_g410__2883
*891 tg/inc_add_20_32_g411__2346
*892 tg/inc_add_20_32_g412__1666
*893 tg/inc_add_20_32_g413__7410
*894 tg/inc_add_20_32_g414__6417
*895 tg/inc_add_20_32_g415__5477
*896 tg/inc_add_20_32_g417__5107
*897 tg/inc_add_20_32_g418__6260
*898 tg/inc_add_20_32_g419__4319
*899 tg/inc_add_20_32_g420__8428
*900 tg/inc_add_20_32_g421__5526
*901 tg/inc_add_20_32_g422__6783
*902 tg/inc_add_20_32_g423__3680
*903 tg/inc_add_20_32_g425__2802
*904 tg/inc_add_20_32_g426__1705
*905 tg/inc_add_20_32_g427__5122
*906 tg/inc_add_20_32_g428__8246
*907 tg/inc_add_20_32_g429__7098
*908 tg/inc_add_20_32_g430__6131
*909 tg/inc_add_20_32_g431__1881
*910 tg/inc_add_20_32_g432__5115
*911 tg/inc_add_20_32_g433__7482
*912 tg/inc_add_20_32_g434__4733
*913 tg/inc_add_20_32_g435__6161
*914 tg/inc_add_20_32_g436__9315
*915 tg/inc_add_20_32_g437__9945
*916 tg/inc_add_20_32_g438__2883
*917 tg/inc_add_20_32_g439__2346
*918 tg/inc_add_20_32_g440__1666
*919 tg/inc_add_20_32_g441__7410
*920 tg/inc_add_20_32_g442__6417
*921 tg/inc_add_20_32_g443__5477
*922 tg/inc_add_20_32_g444__2398
*923 tg/inc_add_20_32_g445__5107
*924 tg/inc_add_20_32_g446__6260
*925 tg/inc_add_20_32_g447__4319
*926 tg/inc_add_20_32_g448__8428
*927 tg/inc_add_20_32_g449__5526
*928 tg/inc_add_20_32_g450__6783
*929 tg/inc_add_20_32_g451
*930 tg/inc_add_20_32_g452__3680
*931 tg/inc_add_20_32_g453__1617
*932 tg/inc_add_20_32_g454__2802
*933 tg/inc_add_20_32_g455__1705
*934 tg/inc_add_20_32_g456__5122
*935 tg/inc_add_20_32_g457__8246
*936 tg/inc_add_20_32_g458__7098
*937 tg/inc_add_20_32_g459__6131
*938 tg/inc_add_20_32_g460
*939 tg/inc_add_20_32_g461
*940 tg/g2
*941 tg/g962


*PORTS

*125 I *C 45.385 90.19
*126 I *C 0 45.965
*127 I *C 46.545 90.19
*128 I *C 0 52.635
*129 I *C 46.255 90.19
*130 I *C 45.965 90.19
*131 I *C 45.385 90.19
*132 I *C 45.385 90.19
*133 I *C 0 57.855
*134 I *C 0 55.825
*135 I *C 0 19.285
*136 I *C 30.305 0
*137 I *C 32.045 0
*138 I *C 0 45.385
*139 I *C 43.355 0
*140 I *C 35.815 0
*141 I *C 46.835 90.19
*142 I *C 34.365 0
*143 I *C 38.715 0
*144 I *C 47.705 0
*145 O *C 0 49.445
*146 O *C 39.875 90.19
*147 O *C 36.975 90.19
*148 O *C 40.455 90.19
*149 O *C 37.845 90.19
*150 O *C 0 41.325
*151 O *C 0 41.905
*152 O *C 0 33.205
*153 O *C 0 32.335
*154 O *C 0 30.305
*155 O *C 0 37.845
*156 O *C 45.965 0
*157 O *C 39.585 0
*158 O *C 43.355 0
*159 O *C 41.615 0
*160 O *C 45.675 0
*161 O *C 54.085 0
*162 O *C 0 54.955
*163 O *C 44.805 90.19
*164 O *C 45.675 90.19
*165 O *C 43.645 90.19
*166 O *C 44.225 90.19
*167 O *C 0 54.375
*168 O *C 0 54.085
*169 O *C 0 23.055
*170 O *C 25.665 0
*171 O *C 26.245 0
*172 O *C 0 46.545
*173 O *C 43.645 0
*174 O *C 34.655 0
*175 O *C 44.805 90.19
*176 O *C 37.265 0
*177 O *C 39.875 0
*178 O *C 51.765 0
*179 O *C 0 63.945


*D_NET *1 0.00202748

*CONN
*I *555:Y O *C 33.785 39.585 *L 0 *D CLKBUFX2
*I *613:A I *C 35.525 24.215 *L 0.0017 *D MXI2XL

*CAP
1 *555:Y 1.28185e-05
2 *613:A 3.68008e-05
3 *1:2 0.000301178
4 *1:3 0.000380787
5 *1:4 0.000232208
6 *1:5 0.000231298
7 *1:6 4.01035e-05
8 *1:7 0.000356791
9 *1:8 0.00043549

*RES
1 *1:7 *613:A 1.40002
2 *1:7 *1:8 2.85857153
3 *1:3 *1:8 0.745699
4 *1:6 *555:Y 0.193316
5 *1:3 *1:2 2.36141
6 *1:4 *1:6 1.40002
7 *1:5 *1:2 0.124269
8 *1:5 *1:4 1.36713
*END

*D_NET *2 0.00031883

*CONN
*I *750:Y O *C 68.875 42.775 *L 0 *D CLKBUFX2
*I *879:A0 I *C 70.615 42.775 *L 0.00271 *D OAI21X1

*CAP
1 *750:Y 3.67997e-05
2 *879:A0 3.67997e-05
3 *2:2 3.952e-05
4 *2:3 3.952e-05
5 *2:4 6.687e-05
6 *2:5 6.687e-05
7 *2:8 3.24498e-05

*RES
1 *2:3 *879:A0 1.39999998
2 *2:3 *2:2 0.124286
3 *2:7 *2:2 0.18284
4 *2:4 *2:2 1.39999998
5 *2:5 *2:4 0.745715
6 *2:8 *2:5 1.39999998
7 *2:8 *750:Y 1.39999998
8 *2:6 *2:8 0.193051
*END

*D_NET *3 0.000345581

*CONN
*I *751:Y O *C 61.045 39.585 *L 0 *D CLKBUFX2
*I *894:A0 I *C 60.175 39.585 *L 0.00157 *D OA21XL

*CAP
1 *751:Y 1.28206e-05
2 *894:A0 1.28206e-05
3 *3:2 4.01005e-05
4 *3:3 5.93801e-05
5 *3:4 5.84703e-05
6 *3:5 4.01005e-05
7 *3:6 6.14000391e-05
8 *3:7 6.04903e-05

*RES
1 *3:5 *751:Y 0.193329
2 *3:6 *3:5 1.39999998
3 *3:6 *3:7 0.372858
4 *3:4 *3:7 0.124286
5 *3:3 *3:4 0.248572
6 *3:2 *3:3 1.39999998
7 *894:A0 *3:2 0.193329
*END

*D_NET *4 0.00078702

*CONN
*I *752:Y O *C 76.705 27.115 *L 0 *D CLKBUFX2
*I *884:A0 I *C 76.705 21.895 *L 0.00271 *D OAI21X1

*CAP
1 *752:Y 1.31408e-05
2 *884:A0 1.28198e-05
3 *4:2 0.00015816
4 *4:3 0.000142531
5 *4:4 4.32789e-05
6 *4:5 4.35685e-05
7 *4:6 4.01005e-05
8 *4:7 5.82997e-05
9 *4:8 7.27292e-05
10 *4:9 8.05292e-05
11 *4:10 4.04191e-05
12 *4:11 8.14415e-05

*RES
1 *4:10 *752:Y 0.193329
2 *4:11 *4:10 1.39999998
3 *4:9 *4:11 0.372858
4 *4:6 *884:A0 0.193329
5 *4:5 *4:9 0.124286
6 *4:7 *4:6 1.39999998
7 *4:4 *4:5 0.248572
8 *4:7 *4:8 0.372858
9 *4:3 *4:4 0.124286
10 *4:2 *4:8 0.248572
11 *4:2 *4:3 1.36714
*END

*D_NET *5 0.0013938

*CONN
*I *630:Y O *C 52.345 42.485 *L 0 *D DLY3X1
*I *679:D I *C 46.835 45.385 *L 0.0016 *D DFFQX1

*CAP
1 *630:Y 3.68008e-05
2 *679:D 3.68008e-05
3 *5:2 8.88815e-05
4 *5:3 8.88815e-05
5 *5:4 0.00049159
6 *5:5 0.00049159
7 *5:6 7.96326e-05
8 *5:7 7.96326e-05

*RES
1 *5:3 *630:Y 1.40001
2 *5:3 *5:2 0.621417
3 *5:4 *5:2 1.40001
4 *5:7 *679:D 1.40001
5 *5:5 *5:4 2.3614285
6 *5:6 *5:7 0.621417
7 *5:6 *5:5 1.40001
*END

*D_NET *6 0.000390858

*CONN
*I *631:Y O *C 32.045 32.045 *L 0 *D DLY2X1
*I *671:D I *C 32.335 29.725 *L 0.0016 *D DFFQX1

*CAP
1 *631:Y 3.67993e-05
2 *671:D 3.67993e-05
3 *6:2 7.27296e-05
4 *6:3 7.36392e-05
5 *6:4 8.59e-05
6 *6:5 8.49903e-05

*RES
1 *6:4 *671:D 1.39999998
2 *6:4 *6:5 0.621429
3 *6:3 *631:Y 1.39999998
4 *6:2 *6:5 0.124286
5 *6:2 *6:3 0.372858
*END

*D_NET *7 9.378e-05

*CONN
*I *753:Y O *C 60.175 21.605 *L 0 *D DLY2X1
*I *861:AN I *C 59.305 21.605 *L 0.00174 *D NOR2BX1

*CAP
1 *7:2 4.689e-05
2 *7:3 4.689e-05

*RES
1 *7:3 *753:Y 1.39999998
2 *7:2 *7:3 0.372858
3 *861:AN *7:2 1.39999998
*END

*D_NET *8 0.000477227

*CONN
*I *754:Y O *C 58.435 32.045 *L 0 *D DLY2X1
*I *860:AN I *C 56.985 29.435 *L 0.00174 *D NOR2BXL

*CAP
1 *754:Y 3.6799e-05
2 *860:AN 3.6799e-05
3 *8:2 0.000118908
4 *8:3 0.00018168
5 *8:4 0.000103039

*RES
1 *8:4 *754:Y 1.39999998
2 *8:3 *8:4 0.621429
3 *8:2 *8:3 1.36714
4 *860:AN *8:2 1.39999998
*END

*D_NET *9 0.000782149

*CONN
*I *755:Y O *C 58.435 44.515 *L 0 *D DLY1X4
*I *859:AN I *C 54.955 45.095 *L 0.00174 *D NOR2BX1

*CAP
1 *755:Y 3.6798e-05
2 *859:AN 3.6798e-05
3 *9:2 4.44494e-05
4 *9:3 4.44494e-05
5 *9:4 0.00024701
6 *9:5 4.26816e-05
7 *9:6 4.359e-05
8 *9:7 0.00024701
9 *9:8 3.9361e-05

*RES
1 *9:8 *755:Y 1.39999998
2 *9:5 *9:8 0.124286
3 *9:5 *9:6 0.248572
4 *9:7 *9:6 1.39999998
5 *9:4 *9:7 1.36714
6 *9:3 *9:4 1.39999998
7 *9:2 *9:3 0.248572
8 *859:AN *9:2 1.39999998
*END

*D_NET *10 0.00068756

*CONN
*I *632:Y O *C 44.805 55.535 *L 0 *D DLY2X1
*I *668:D I *C 42.775 52.635 *L 0.0016 *D DFFQX1

*CAP
1 *632:Y 3.67992e-05
2 *668:D 3.67992e-05
3 *10:2 0.00011041
4 *10:3 0.00011041
5 *10:4 3.01696e-05
6 *10:5 3.01696e-05
7 *10:6 0.000166399941
8 *10:7 0.000166399941

*RES
1 *10:3 *668:D 1.39999998
2 *10:3 *10:2 0.870001
3 *10:7 *10:2 1.39999998
4 *10:7 *10:6 0.870001
5 *10:4 *632:Y 1.39999998
6 *10:5 *10:6 1.39999998
7 *10:5 *10:4 0.124286
8 *10:8 *10:5 0.0643219
*END

*D_NET *11 0.000342681

*CONN
*I *633:Y O *C 37.555 55.535 *L 0 *D DLY2X1
*I *669:D I *C 36.685 52.635 *L 0.0016 *D DFFQX1

*CAP
1 *633:Y 3.68001e-05
2 *669:D 3.68001e-05
3 *11:2 3.64002e-05
4 *11:3 6.65498e-05
5 *11:4 9.814e-05
6 *11:5 6.79904e-05

*RES
1 *11:5 *633:Y 1.39999998
2 *11:4 *11:5 0.745715
3 *11:3 *11:4 0.372858
4 *11:2 *11:3 0.248572
5 *669:D *11:2 1.39999998
*END

*D_NET *12 0.000551248

*CONN
*I *756:Y O *C 72.935 24.215 *L 0 *D DLY3X1
*I *868:AN I *C 76.995 24.215 *L 0.00174 *D NOR2BX1

*CAP
1 *756:Y 3.67984e-05
2 *868:AN 3.67984e-05
3 *12:3 3.90696e-05
4 *12:4 3.90696e-05
5 *12:5 0.00018353
6 *12:6 3.24493e-05
7 *12:7 0.00018353

*RES
1 *12:3 *756:Y 1.39999
2 *12:3 *12:4 0.12428
3 *12:5 *12:4 1.39999
4 *12:5 *12:7 1.61571431
5 *12:6 *868:AN 1.39999
6 *12:6 *12:7 1.39999
7 *12:2 *12:6 0.193064
*END

*D_NET *13 0.00131521

*CONN
*I *757:Y O *C 72.065 39.875 *L 0 *D DLY3X1
*I *867:AN I *C 73.515 47.705 *L 0.00174 *D NOR2BX1

*CAP
1 *757:Y 3.67984e-05
2 *867:AN 3.67984e-05
3 *13:2 6.82588e-05
4 *13:3 6.82588e-05
5 *13:5 3.24513e-05
6 *13:6 0.000210901
7 *13:7 0.00020999
8 *13:8 0.000325419
9 *13:9 0.000326330527

*RES
1 *13:9 *867:AN 1.39999
2 *13:8 *13:9 1.36715
3 *13:7 *13:8 0.12428
4 *13:6 *13:7 1.61571431
5 *13:2 *13:6 1.39999
6 *13:3 *13:2 0.497145
7 *13:5 *13:3 1.39999
8 *13:5 *757:Y 1.39999
9 *13:4 *13:5 0.193064
*END

*D_NET *14 0.000445881

*CONN
*I *758:Y O *C 54.955 34.365 *L 0 *D DLY4X1
*I *864:AN I *C 54.665 37.265 *L 0.00174 *D NOR2BX1

*CAP
1 *758:Y 3.68002e-05
2 *864:AN 3.68002e-05
3 *14:2 8.63795e-05
4 *14:3 8.72898e-05
5 *14:4 9.976e-05
6 *14:5 9.88497e-05

*RES
1 *14:4 *758:Y 1.39999998
2 *14:3 *864:AN 1.39999998
3 *14:4 *14:5 0.745715
4 *14:2 *14:3 0.497144
5 *14:2 *14:5 0.124286
*END

*D_NET *15 0.0005842

*CONN
*I *759:Y O *C 72.935 37.265 *L 0 *D DLY3X1
*I *866:AN I *C 76.995 37.265 *L 0.00174 *D NOR2BX1

*CAP
1 *759:Y 3.67986e-05
2 *866:AN 3.67986e-05
3 *15:2 4.44689e-05
4 *15:3 0.00011831
5 *15:4 0.00013337
6 *15:6 3.93608e-05
7 *15:7 3.93608e-05
8 *15:8 5.95306e-05
9 *15:9 3.8099e-05
10 *15:10 3.8099e-05

*RES
1 *15:6 *759:Y 1.39999998
2 *15:6 *15:7 0.124286
3 *15:8 *15:7 1.39999998
4 *15:8 *15:4 0.372858
5 *15:4 *15:3 0.870001
6 *15:10 *866:AN 1.39999998
7 *15:3 *15:2 0.372858
8 *15:9 *15:10 0.124286
9 *15:9 *15:2 1.39999998
10 *15:5 *15:9 0.0643219
*END

*D_NET *16 0.000937231

*CONN
*I *760:Y O *C 72.065 29.435 *L 0 *D DLY3X1
*I *856:AN I *C 76.995 34.655 *L 0.00174 *D NOR2BX1

*CAP
1 *760:Y 3.67979e-05
2 *856:AN 3.67979e-05
3 *16:2 0.00023872
4 *16:3 0.00023872
5 *16:5 0.000176872
6 *16:6 0.000176872
7 *16:7 3.24486e-05

*RES
1 *16:5 *760:Y 1.40001
2 *16:5 *16:6 1.86429
3 *16:3 *16:6 1.40001
4 *16:3 *16:2 2.1128571
5 *16:7 *856:AN 1.40001
6 *16:7 *16:2 1.40001
7 *16:4 *16:7 0.193051
*END

*D_NET *17 0.00182048

*CONN
*I *761:Y O *C 59.885 50.315 *L 0 *D DLY2X1
*I *937:A I *C 63.655 52.925 *L 0.00157 *D NAND2XL
*I *891:A0 I *C 60.755 58.435 *L 0.00271 *D OAI21X1
*I *892:A I *C 61.915 55.535 *L 0.00157 *D NAND2XL

*CAP
1 *761:Y 3.68018e-05
2 *937:A 3.68018e-05
3 *891:A0 3.68018e-05
4 *892:A 3.68018e-05
5 *17:4 0.00023921
6 *17:5 0.000240819141
7 *17:6 9.83818e-05
8 *17:7 9.95503e-05
9 *17:8 7.87113e-05
10 *17:9 7.44009e-05
11 *17:10 0.000184582
12 *17:11 0.000143992
13 *17:12 8.86403e-05
14 *17:13 8.86403e-05
15 *17:14 4.274e-05
16 *17:15 8.85521e-05
17 *17:16 0.00010253
18 *17:17 0.00010253

*RES
1 *17:14 *891:A0 1.39999998
2 *17:14 *17:15 0.248572
3 *17:15 *17:4 0.497144
4 *17:5 *892:A 1.39999998
5 *17:5 *17:4 1.36714
6 *17:8 *17:5 0.621429
7 *17:17 *937:A 1.39999998
8 *17:8 *17:6 0.124286
9 *17:16 *17:17 0.497144
10 *17:7 *17:6 0.994287
11 *17:9 *17:16 1.39999998
12 *17:10 *17:7 1.39999998
13 *17:10 *17:9 0.621429
14 *17:11 *17:10 0.994287
15 *17:13 *17:11 1.39999998
16 *17:12 *17:13 0.621429
17 *761:Y *17:12 1.39999998
*END

*D_NET *18 0.00060864

*CONN
*I *762:Y O *C 55.535 65.685 *L 0 *D DLY4X1
*I *789:A I *C 53.215 68.585 *L 0.00172 *D CLKBUFX2

*CAP
1 *762:Y 3.68002e-05
2 *789:A 3.68002e-05
3 *18:2 6.25902e-05
4 *18:3 6.25902e-05
5 *18:4 0.00011986
6 *18:5 8.50698e-05
7 *18:6 8.50698e-05
8 *18:7 0.00011986

*RES
1 *18:5 *762:Y 1.39999998
2 *18:5 *18:6 0.745715
3 *18:7 *18:6 1.39999998
4 *18:2 *789:A 1.39999998
5 *18:4 *18:7 0.994287
6 *18:3 *18:2 0.497144
7 *18:3 *18:4 1.39999998
*END

*D_NET *19 0.00130338

*CONN
*I *634:Y O *C 32.335 40.165 *L 0 *D DLY1X1
*I *725:A I *C 30.885 32.045 *L 0.00157 *D NAND2XL
*I *723:A I *C 31.175 34.6075 *L 0.00156 *D XNOR2XL

*CAP
1 *634:Y 2.56617e-05
2 *725:A 3.68013e-05
3 *723:A 3.68013e-05
4 *19:3 0.00031576
5 *19:4 0.00031576
6 *19:5 5.59392e-05
7 *19:6 7.75295e-05
8 *19:7 8.96906e-05
9 *19:8 9.06012e-05
10 *19:9 5.31398e-05
11 *19:10 7.98711e-05
12 *19:11 7.98711e-05
13 *19:12 4.59607e-05

*RES
1 *634:Y *19:12 0.386678
2 *19:3 *19:12 1.4
3 *19:4 *19:3 1.74000001
4 *19:11 *19:4 1.4
5 *19:10 *19:11 0.745718
6 *19:5 *19:10 1.4
7 *19:6 *723:A 1.4
8 *19:6 *19:5 0.372846
9 *19:9 *19:6 0.372846
10 *19:7 *19:9 0.124282
11 *19:8 *19:7 0.745718
12 *725:A *19:8 1.4
*END

*D_NET *20 0.00157549

*CONN
*I *635:Y O *C 42.485 42.485 *L 0 *D DLY2X1
*I *647:A I *C 35.235 42.775 *L 0.00283 *D CLKBUFX3
*I *745:A I *C 40.445 42.5475 *L 0.00163 *D INVXL
*I *721:B0 I *C 41.325 39.585 *L 0.0028 *D OAI21X1

*CAP
1 *635:Y 3.68016e-05
2 *647:A 3.68016e-05
3 *745:A 3.68016e-05
4 *721:B0 3.68016e-05
5 *20:4 0.000175581
6 *20:5 0.000144651
7 *20:6 4.14207e-05
8 *20:7 7.2351e-05
9 *20:11 3.24496e-05
10 *20:12 0.000188312
11 *20:13 0.00021095
12 *20:14 3.24496e-05
13 *20:15 5.64497e-05
14 *20:13 *68:10 0.00019529
15 *20:12 *68:11 0.00019529
16 *20:15 *68:12 3.182e-05
17 *20:13 *68:13 3.182e-05
18 *20:13 *68:12 9.73e-06
19 *20:12 *68:13 9.72998882e-06

*RES
1 *20:5 *721:B0 1.39999
2 *20:5 *20:4 0.869992
3 *20:7 *20:4 0.372869
4 *20:10 *20:14 0.193074
5 *20:14 *635:Y 1.39999
6 *20:6 *745:A 1.39999
7 *20:7 *20:6 0.248579
8 *20:9 *20:6 0.193074
9 *20:15 *20:14 1.39999
10 *20:13 *20:6 1.39999
11 *20:13 *20:15 0.869992
12 *20:12 *20:13 2.2371428
13 *20:11 *647:A 1.39999
14 *20:11 *20:12 1.39999
15 *20:8 *20:11 0.193074
*END

*D_NET *21 0.0016565

*CONN
*I *763:Y O *C 72.065 63.945 *L 0 *D DLY1X4
*I *887:A I *C 70.325 52.925 *L 0.00157 *D NAND2XL
*I *882:A0 I *C 72.355 53.215 *L 0.00157 *D OA21XL

*CAP
1 *763:Y 3.68016e-05
2 *887:A 3.68016e-05
3 *882:A0 3.68016e-05
4 *21:3 9.35123e-05
5 *21:4 7.56897e-05
6 *21:5 2.92414e-05
7 *21:6 2.92414e-05
8 *21:7 5.16266e-05
9 *21:8 3.93342e-05
10 *21:9 3.93342e-05
11 *21:10 4.46132e-05
12 *21:11 4.46132e-05
13 *21:12 6.14743e-05
14 *21:13 6.23478e-05
15 *21:14 0.00041185
16 *21:15 0.00041185
17 *21:19 5.90296e-05
18 *21:20 5.99095e-05
19 *21:21 3.24528e-05

*RES
1 *21:17 *21:21 0.19304
2 *21:21 *763:Y 1.4
3 *21:10 *21:21 1.4
4 *21:11 *21:10 0.248587
5 *21:20 *21:11 1.4
6 *21:19 *21:20 0.37288
7 *21:14 *21:19 0.124293
8 *21:9 *882:A0 1.4
9 *21:18 *21:9 0.0643465
10 *21:15 *21:14 3.60428572
11 *21:9 *21:8 0.124293
12 *21:15 *21:12 0.124293
13 *21:7 *21:8 1.4
14 *21:13 *21:12 0.37288
15 *21:3 *21:7 0.37288
16 *21:3 *21:13 1.4
17 *21:4 *21:3 0.497118
18 *21:5 *21:4 1.4
19 *21:6 *887:A 1.4
20 *21:6 *21:5 0.124293
21 *21:16 *21:6 0.0643465
*END

*D_NET *22 0.00659881

*CONN
*I *764:Y O *C 61.335 24.215 *L 0 *D DLY2X1
*I *771:A I *C 16.095 34.655 *L 0.00172 *D CLKBUFX2

*CAP
1 *764:Y 3.67991e-05
2 *771:A 3.67991e-05
3 *22:2 0.000256795
4 *22:3 0.000256795
5 *22:4 0.000198089
6 *22:5 0.000198089
7 *22:6 0.000270722
8 *22:7 0.0002707
9 *22:8 0.000727270391
10 *22:9 0.000727270391
11 *22:10 0.000279034
12 *22:11 0.000279034
13 *22:12 0.000146897
14 *22:13 0.00014602
15 *22:14 5.91826e-05
16 *22:15 5.91826e-05
17 *22:17 0.000400395
18 *22:18 0.000113449
19 *22:19 3.24489e-05
20 *22:20 0.000113449
21 *22:21 4.33799e-05
22 *22:22 0.000399474
23 *22:23 4.33799e-05
24 *22:22 0.00010497
25 *22:17 0.00010497
26 *22:22 0.00012435
27 *22:17 0.00012435
28 *22:22 3.751e-05
29 *22:17 3.751e-05
30 *22:23 4.86e-06
31 *22:21 4.86e-06
32 *22:4 1.189e-05
33 *22:5 1.189e-05
34 *22:4 8.56e-06
35 *22:5 8.5599994e-06
36 *22:22 *82:5 0.00010383
37 *22:17 *82:6 0.00010383
38 *22:22 *82:6 3.225e-05
39 *22:17 *82:3 3.225e-05
40 *22:22 *82:3 1.459e-05
41 *22:17 *82:4 1.45899966e-05
42 *22:22 *162:7 4.083e-05
43 *22:17 *162:8 4.083e-05
44 *22:2 *162:9 1.256e-05
45 *22:3 *162:10 1.256e-05
46 *22:2 *162:11 9.289e-05
47 *22:3 *162:12 9.28900025e-05
48 *22:2 *28:11 0.00016298
49 *22:3 *28:10 0.000162980005

*RES
1 *22:15 *764:Y 1.40001
2 *22:15 *22:14 0.248568
3 *22:12 *22:14 1.40001
4 *22:13 *22:12 1.24284
5 *22:6 *22:13 0.124284
6 *22:7 *22:6 3.1071
7 *22:7 *22:10 0.124284
8 *22:11 *22:10 2.23711
9 *22:8 *22:11 0.124284
10 *22:9 *22:8 4.97145
11 *22:4 *22:9 0.124284
12 *22:5 *22:4 1.98854
13 *22:5 *22:23 0.124284
14 *22:21 *22:23 0.497135
15 *22:21 *22:22 0.124284
16 *22:17 *22:22 6.33857155
17 *22:3 *22:17 1.40001
18 *22:3 *22:2 4.22575
19 *22:18 *22:2 1.40001
20 *22:18 *22:20 0.994271
21 *22:19 *771:A 1.40001
22 *22:19 *22:20 1.40001
23 *22:16 *22:19 0.193051
*END

*D_NET *23 0.00130446

*CONN
*I *751:A I *C 61.625 39.875 *L 0.00172 *D CLKBUFX2
*I *765:Y O *C 56.695 37.265 *L 0 *D DLY2X1
*I *935:B I *C 63.655 37.265 *L 0.00167 *D NAND2XL
*I *898:A I *C 62.205 37.265 *L 0.00157 *D NAND2XL

*CAP
1 *751:A 3.68013e-05
2 *765:Y 3.68013e-05
3 *935:B 3.68013e-05
4 *898:A 3.68013e-05
5 *23:4 7.75809e-05
6 *23:5 9.25884e-05
7 *23:6 3.68819e-05
8 *23:7 3.68819e-05
9 *23:8 6.15108e-05
10 *23:9 0.00025141
11 *23:10 0.000223712
12 *23:12 3.2451e-05
13 *23:13 4.17885e-05
14 *23:14 4.39406e-05
15 *23:15 4.96183e-05
16 *23:8 *408:8 8.53e-06
17 *23:9 *408:9 8.53e-06
18 *23:9 *408:8 4.561e-05
19 *23:10 *408:9 4.561e-05
20 *23:9 *408:9 4.044e-05
21 *23:10 *408:10 4.044e-05
22 *23:15 *408:11 9.87e-06
23 *23:14 *408:12 9.86999934e-06

*RES
1 *23:4 *751:A 1.40001
2 *23:5 *23:4 0.621417
3 *23:7 *935:B 1.40001
4 *23:13 *898:A 1.40001
5 *23:5 *23:15 0.248588
6 *23:7 *23:6 0.248588
7 *23:13 *23:14 0.248588
8 *23:14 *23:15 0.248588
9 *23:8 *23:6 1.40001
10 *23:9 *23:14 1.40001
11 *23:9 *23:8 0.621417
12 *23:10 *23:9 2.3614285
13 *23:12 *23:10 1.40001
14 *23:12 *765:Y 1.40001
15 *23:11 *23:12 0.193062
*END

*D_NET *24 0.00809423

*CONN
*I *766:Y O *C 62.495 26.825 *L 0 *D DLY2X1
*I *770:A I *C 16.965 37.265 *L 0.00172 *D CLKBUFX2

*CAP
1 *766:Y 3.6797e-05
2 *770:A 3.6797e-05
3 *24:2 0.000270353
4 *24:3 0.00027156
5 *24:4 0.00102453
6 *24:5 0.00104123
7 *24:6 0.000144662
8 *24:7 0.000143788
9 *24:8 8.04894e-05
10 *24:9 8.04894e-05
11 *24:10 0.000232269
12 *24:11 0.000215539
13 *24:12 6.23133e-05
14 *24:13 6.23133e-05
15 *24:14 0.000138656
16 *24:15 0.000138656
17 *24:16 0.000126041
18 *24:17 0.000126057
19 *24:18 8.41278e-05
20 *24:19 8.50175e-05
21 *24:20 6.38227e-05
22 *24:21 6.38227e-05
23 *24:23 3.9069e-05
24 *24:24 0.000106943
25 *24:25 3.24595e-05
26 *24:26 0.000106943
27 *24:6 *358:5 0.0001459
28 *24:7 *358:6 0.0001459
29 *24:12 *358:5 2.432e-05
30 *24:13 *358:6 2.432e-05
31 *24:14 *358:5 2.616e-05
32 *24:15 *358:6 2.61599916e-05
33 *24:4 *176:17 5.822e-05
34 *24:5 *176:15 5.822e-05
35 *24:4 *176:22 4.821e-05
36 *24:5 *176:20 4.821e-05
37 *24:4 *176:20 0.00013661
38 *24:5 *176:18 0.00013661
39 *24:4 *176:18 3.677e-05
40 *24:5 *176:16 3.677e-05
41 *24:4 *176:14 3.751e-05
42 *24:5 *176:13 3.75099875e-05
43 *24:4 9.794e-05
44 *24:5 9.794e-05
45 *24:4 8.572e-05
46 *24:5 8.572e-05
47 *24:4 8.523e-05
48 *24:5 8.523e-05
49 *24:10 4.089e-05
50 *24:11 4.089e-05
51 *24:16 3.054e-05
52 *24:17 3.054e-05
53 *24:4 2.368e-05
54 *24:5 2.368e-05
55 *24:4 2.919e-05
56 *24:5 2.919e-05
57 *24:4 3.736e-05
58 *24:5 3.736e-05
59 *24:16 8.56e-06
60 *24:17 8.55999837e-06
61 *24:2 *34:18 0.0002486
62 *24:3 *34:15 0.000248599999
63 *24:2 *28:11 0.00040871
64 *24:3 *28:10 0.00040871
65 *24:2 *28:7 2.962e-05
66 *24:3 *28:6 2.96199811e-05

*RES
1 *24:8 *766:Y 1.40004
2 *24:9 *24:8 0.372937
3 *24:6 *24:9 1.40004
4 *24:7 *24:6 1.49139
5 *24:12 *24:7 0.124312
6 *24:13 *24:12 0.621381
7 *24:14 *24:13 0.124312
8 *24:15 *24:14 1.49139
9 *24:15 *24:4 0.124312
10 *24:5 *24:4 11.8071432
11 *24:5 *24:10 0.248625
12 *24:11 *24:10 2.36139
13 *24:16 *24:11 0.124312
14 *24:17 *24:16 1.49139
15 *24:20 *24:17 0.124312
16 *24:21 *24:20 0.497069
17 *24:21 *24:18 0.124312
18 *24:19 *24:18 0.745693
19 *24:3 *24:19 1.40004
20 *24:3 *24:2 4.8471
21 *24:2 *24:23 0.124312
22 *24:24 *24:23 1.40004
23 *24:24 *24:26 0.870006
24 *24:25 *770:A 1.40004
25 *24:25 *24:26 1.40004
26 *24:22 *24:25 0.193134
*END

*D_NET *25 0.000868317

*CONN
*I *483:Y O *C 22.475 68.585 *L 0 *D DLY3X1
*I *486:A I *C 17.835 71.195 *L 0.00172 *D CLKBUFX2

*CAP
1 *483:Y 3.68011e-05
2 *486:A 3.68011e-05
3 *25:2 2.92384e-05
4 *25:3 2.92384e-05
5 *25:4 9.57703e-05
6 *25:5 9.69714e-05
7 *25:6 4.35294e-05
8 *25:7 4.23283e-05
9 *25:8 0.00022882
10 *25:9 0.00022882

*RES
1 *25:5 *483:Y 1.40001
2 *25:5 *25:4 0.745703
3 *25:7 *25:4 0.124284
4 *25:7 *25:6 0.248568
5 *25:8 *25:6 1.40001
6 *25:9 *25:8 1.86428571
7 *25:3 *25:9 1.40001
8 *25:2 *486:A 1.40001
9 *25:3 *25:2 0.124284
10 *25:10 *25:2 0.182856
*END

*D_NET *26 0.00114565

*CONN
*I *484:Y O *C 31.755 73.805 *L 0 *D DLY3X1
*I *487:A I *C 22.765 71.195 *L 0.00172 *D CLKBUFX2

*CAP
1 *484:Y 3.68007e-05
2 *487:A 3.68007e-05
3 *26:2 5.42792e-05
4 *26:3 5.34017e-05
5 *26:4 0.00029043
6 *26:5 0.00029043
7 *26:6 3.49792e-05
8 *26:7 3.49792e-05
9 *26:8 7.36323e-05
10 *26:9 7.27504e-05
11 *26:10 8.35814e-05
12 *26:11 8.35814e-05

*RES
1 *26:11 *484:Y 1.39998
2 *26:10 *26:11 0.497141
3 *26:2 *26:10 1.39998
4 *26:3 *26:2 0.372846
5 *26:4 *26:3 0.124295
6 *26:5 *26:4 2.6099999
7 *26:5 *26:9 0.124295
8 *26:8 *26:9 0.869987
9 *26:7 *26:8 1.39998
10 *26:6 *26:7 0.24859
11 *487:A *26:6 1.39998
*END

*D_NET *27 0.00644878

*CONN
*I *767:Y O *C 16.385 65.685 *L 0 *D CLKBUFX2
*I *908:A0 I *C 59.61 52.91 *L 0.00157 *D OA21X2
*I *913:A I *C 63.365 52.925 *L 0.00157 *D NAND2XL
*I *937:B I *C 64.235 52.925 *L 0.00167 *D NAND2XL

*CAP
1 *767:Y 3.68087e-05
2 *908:A0 1.28191e-05
3 *913:A 3.68087e-05
4 *937:B 3.68087e-05
5 *27:4 4.75245e-05
6 *27:5 4.75245e-05
7 *27:6 0.000171878
8 *27:7 0.00186275
9 *27:8 0.0017247
10 *27:9 8.02118e-05
11 *27:10 8.02118e-05
12 *27:11 6.97519e-05
13 *27:12 6.97519e-05
14 *27:14 0.000205305
15 *27:15 0.000206498
16 *27:16 8.34521e-05
17 *27:17 8.22583e-05
18 *27:18 0.000152294
19 *27:19 0.000152294
20 *27:20 0.000140015
21 *27:21 0.000140015
22 *27:22 4.00775e-05
23 *27:23 3.24599e-05
24 *27:6 *35:6 3.14e-05
25 *27:7 *35:7 3.14e-05
26 *27:7 *35:6 8.04e-05
27 *27:8 *35:7 8.0400001e-05
28 *27:7 0.00010777
29 *27:8 0.00010777
30 *27:7 8.684e-05
31 *27:8 8.684e-05
32 *27:7 3.727e-05
33 *27:8 3.727e-05
34 *27:7 0.00012462
35 *27:8 0.000124619996

*RES
1 *27:15 *767:Y 1.40002
2 *27:14 *27:15 1.86419
3 *27:14 *27:19 0.124335
4 *27:18 *27:19 1.49146
5 *27:18 *27:21 0.124335
6 *27:20 *27:21 1.11846
7 *27:22 *908:A0 0.193472
8 *27:17 *27:20 0.124335
9 *27:10 *27:22 1.40002
10 *27:16 *27:17 0.372726
11 *27:10 *27:9 0.621396
12 *27:8 *27:16 1.40002
13 *27:7 *27:9 1.40002
14 *27:8 *27:7 18.2700005
15 *27:7 *27:6 1.74013
16 *27:11 *27:6 1.40002
17 *27:12 *913:A 1.40002
18 *27:12 *27:11 0.621396
19 *27:5 *27:12 1.40002
20 *27:5 *27:4 0.372726
21 *27:23 *937:B 1.40002
22 *27:23 *27:4 1.40002
23 *27:13 *27:23 0.193193
*END

*D_NET *28 0.00727224

*CONN
*I *636:Y O *C 15.515 39.585 *L 0 *D CLKBUFX2
*I *676:D I *C 55.245 19.285 *L 0.0016 *D DFFQX1

*CAP
1 *636:Y 5.1331e-05
2 *676:D 3.67934e-05
3 *28:2 0.00128054
4 *28:3 0.00128054
5 *28:4 0.000102369
6 *28:5 0.000102369
7 *28:6 8.78704e-05
8 *28:7 8.78704e-05
9 *28:8 0.000220858
10 *28:9 0.000219647
11 *28:10 0.000328308
12 *28:11 0.000328308
13 *28:12 8.94336e-05
14 *28:13 7.16133e-05
15 *28:14 9.06451e-05
16 *28:15 0.000122495
17 *28:16 0.000122495
18 *28:17 6.82329e-05
19 *28:18 6.70215e-05
20 *28:19 5.71148e-05
21 *28:20 5.83067e-05
22 *28:2 *80:6 1.427e-05
23 *28:3 *80:7 1.427e-05
24 *28:2 *80:8 0.00024971
25 *28:3 *80:9 0.000249710008
26 *28:2 *431:10 0.00010032
27 *28:3 *431:8 0.00010032
28 *28:2 *431:6 0.00023342
29 *28:3 *431:4 0.000233420001
30 *28:11 *24:2 0.00040871
31 *28:10 *24:3 0.00040871
32 *28:7 *24:2 2.962e-05
33 *28:6 *24:3 2.96199811e-05
34 *28:11 *22:2 0.00016298
35 *28:10 *22:3 0.000162980005

*RES
1 *28:20 *676:D 1.4001
2 *28:19 *28:20 0.372755
3 *28:16 *28:19 0.124341
4 *28:13 *636:Y 0.773319
5 *28:15 *28:16 1.11853
6 *28:14 *28:13 1.4001
7 *28:15 *28:18 0.124341
8 *28:12 *28:14 0.745777
9 *28:17 *28:18 0.497095
10 *28:7 *28:12 0.124341
11 *28:2 *28:17 1.4001
12 *28:6 *28:7 0.994191
13 *28:3 *28:2 17.5242863
14 *28:6 *28:11 0.124341
15 *28:8 *28:3 1.4001
16 *28:10 *28:11 5.2199
17 *28:8 *28:9 2.73416
18 *28:5 *28:10 0.124341
19 *28:4 *28:9 0.124341
20 *28:4 *28:5 0.994191
*END

*D_NET *29 0.000839633

*CONN
*I *637:Y O *C 32.625 58.435 *L 0 *D CLKBUFX2
*I *690:A I *C 35.525 60.465 *L 0.00162 *D NOR2XL
*I *689:A0 I *C 36.975 60.465 *L 0.00158 *D AOI21XL
*I *692:B I *C 35.235 58.435 *L 0.00284 *D NAND2BX1

*CAP
1 *637:Y 3.68009e-05
2 *690:A 9.21395e-05
3 *689:A0 6.48599e-05
4 *692:B 3.68009e-05
5 *29:4 0.00013231
6 *29:5 0.00013231
7 *29:8 3.24501e-05
8 *29:9 8.96906e-05
9 *29:10 8.85196e-05
10 *29:11 6.62913e-05
11 *29:12 6.74602e-05

*RES
1 *690:A *689:A0 0.966666
2 *29:12 *690:A 1.39999998
3 *29:11 *29:12 0.248572
4 *29:10 *29:11 0.124286
5 *29:9 *692:B 1.39999998
6 *29:7 *29:9 0.193051
7 *29:9 *29:10 0.621429
8 *29:4 *29:9 1.39999998
9 *29:5 *29:4 1.11857
10 *29:8 *29:5 1.39999998
11 *29:8 *637:Y 1.39999998
12 *29:6 *29:8 0.193051
*END

*D_NET *30 0.00128618

*CONN
*I *638:Y O *C 33.205 60.465 *L 0 *D CLKBUFX2
*I *695:B I *C 37.845 63.655 *L 0.00168 *D NAND2BXL
*I *694:A I *C 39.585 65.685 *L 0.00162 *D NOR2XL
*I *693:A0 I *C 38.135 65.685 *L 0.00158 *D AOI21XL

*CAP
1 *638:Y 3.68015e-05
2 *695:B 3.68015e-05
3 *694:A 6.52623e-05
4 *693:A0 9.25408e-05
5 *30:4 0.000164189
6 *30:5 0.000124519
7 *30:6 0.00021461
8 *30:7 0.00021461
9 *30:8 7.34393e-05
10 *30:9 7.34393e-05
11 *30:10 7.09603e-05
12 *30:11 5.89224e-05
13 *30:12 6.00915e-05

*RES
1 *693:A0 *694:A 0.966673
2 *30:12 *693:A0 1.4
3 *30:11 *30:12 0.372857
4 *30:10 *30:11 0.124286
5 *30:4 *695:B 1.4
6 *30:4 *30:10 0.497143
7 *30:5 *30:4 0.87
8 *30:6 *30:5 1.4
9 *30:7 *30:6 1.98857141
10 *30:9 *30:7 1.4
11 *30:8 *30:9 0.497143
12 *638:Y *30:8 1.4
*END

*D_NET *31 0.00617263

*CONN
*I *768:Y O *C 39.585 63.655 *L 0 *D CLKBUFX2
*I *880:A I *C 61.915 29.145 *L 0.00338 *D ADDHX1
*I *931:A I *C 64.235 28.855 *L 0.00152 *D NAND4XL

*CAP
1 *768:Y 3.68062e-05
2 *880:A 3.68062e-05
3 *931:A 3.68062e-05
4 *31:3 0.000105886
5 *31:4 0.000119091
6 *31:5 4.61717e-05
7 *31:6 0.000161086
8 *31:7 0.000161086
9 *31:8 0.000125797
10 *31:9 0.00012664
11 *31:10 0.00029046
12 *31:11 0.000291341
13 *31:12 0.000200308
14 *31:13 0.000200308
15 *31:14 0.00020559
16 *31:15 0.00020471
17 *31:16 4.08146e-05
18 *31:17 4.08146e-05
19 *31:18 0.00122753
20 *31:19 0.00122753
21 *31:22 3.24419e-05
22 *31:23 3.24419e-05
23 *31:18 *373:4 3.518e-05
24 *31:19 *373:5 3.518e-05
25 *31:18 *373:13 0.00016371
26 *31:19 *373:11 0.00016371
27 *31:18 *373:10 9.209e-05
28 *31:19 *373:9 9.209e-05
29 *31:14 *373:16 4.977e-05
30 *31:15 *373:14 4.97699896e-05
31 *31:3 *33:14 8.515e-05
32 *31:4 *33:15 8.515e-05
33 *31:4 *33:14 3.685e-05
34 *31:5 *33:15 3.685e-05
35 *31:6 *33:15 4.378e-05
36 *31:7 *33:16 4.378e-05
37 *31:8 *33:19 5.923e-05
38 *31:9 *33:20 5.923e-05
39 *31:8 *33:21 4.314e-05
40 *31:9 *33:22 4.314e-05
41 *31:3 *33:10 2.17e-06
42 *31:4 *33:11 2.16999814e-06

*RES
1 *31:16 *768:Y 1.40009
2 *31:17 *31:16 0.248511
3 *31:11 *31:17 1.40009
4 *31:11 *31:10 2.11279
5 *31:13 *31:10 0.124255
6 *31:13 *31:12 1.98853
7 *31:12 *31:15 0.124255
8 *31:15 *31:14 1.86427
9 *31:18 *31:14 1.40009
10 *31:19 *31:18 14.5414286
11 *31:9 *31:19 1.40009
12 *31:9 *31:8 1.74002
13 *31:8 *31:7 0.124255
14 *31:7 *31:6 1.49151
15 *31:23 *931:A 1.40009
16 *31:21 *31:23 0.19304
17 *31:5 *31:6 0.124255
18 *31:3 *31:23 1.40009
19 *31:5 *31:4 0.372766
20 *31:4 *31:3 0.994265
21 *31:22 *880:A 1.40009
22 *31:22 *31:4 1.40009
23 *31:20 *31:22 0.19304
*END

*D_NET *32 0.00644765

*CONN
*I *769:Y O *C 19.865 42.775 *L 0 *D CLKBUFX2
*I *939:A I *C 64.515 32.1075 *L 0.00163 *D INVXL
*I *931:C I *C 63.655 29.145 *L 0.00164 *D NAND4XL

*CAP
1 *769:Y 3.67944e-05
2 *939:A 3.67944e-05
3 *931:C 3.67944e-05
4 *32:3 0.000235772
5 *32:4 0.000235772
6 *32:5 8.44507e-05
7 *32:6 0.000144808
8 *32:7 0.000123745
9 *32:8 7.15261e-05
10 *32:9 4.05854e-05
11 *32:10 0.000330081
12 *32:11 0.000330927
13 *32:12 0.00024629
14 *32:13 0.00024629
15 *32:14 0.000108571
16 *32:15 0.000108571
17 *32:16 8.38467e-05
18 *32:17 8.30012e-05
19 *32:18 0.00060892
20 *32:19 0.000608242
21 *32:20 0.000276581
22 *32:21 0.000276581
23 *32:22 0.000112195
24 *32:23 0.000429417
25 *32:24 0.000112195
26 *32:25 0.00042925
27 *32:26 0.000112307
28 *32:27 0.000112307
29 *32:28 4.10871e-05
30 *32:21 *287:11 1.438e-05
31 *32:20 *287:12 1.438e-05
32 *32:21 *287:9 0.00022919
33 *32:20 *287:10 0.000229189999
34 *32:5 *356:5 2.512e-05
35 *32:6 *356:4 2.512e-05
36 *32:6 *356:5 9.767e-05
37 *32:7 *356:4 9.767e-05
38 *32:8 *356:5 5.62e-06
39 *32:9 *356:4 5.61999399e-06

*RES
1 *32:9 *931:C 1.39997
2 *32:9 *32:8 0.248537
3 *32:8 *32:7 0.37285
4 *32:6 *939:A 1.39997
5 *32:7 *32:6 0.994324
6 *32:6 *32:5 0.497162
7 *32:28 *32:5 1.39997
8 *32:28 *32:10 0.124312
9 *32:11 *32:10 2.61003
10 *32:13 *32:11 1.39997
11 *32:13 *32:12 2.23718
12 *32:16 *32:12 1.39997
13 *32:17 *32:16 0.37285
14 *32:17 *32:27 0.124312
15 *32:26 *32:27 0.994324
16 *32:25 *32:26 0.124312
17 *32:23 *32:25 3.97712
18 *32:23 *32:24 0.124312
19 *32:22 *32:24 0.994324
20 *32:21 *32:22 0.124312
21 *32:20 *32:21 3.35573
22 *32:20 *32:14 0.124312
23 *32:15 *32:14 1.11855
24 *32:19 *32:15 0.124312
25 *32:18 *32:19 5.71714306
26 *32:3 *769:Y 1.39997
27 *32:4 *32:18 1.39997
28 *32:4 *32:3 1.74002
*END

*D_NET *33 0.00878925

*CONN
*I *770:Y O *C 16.385 37.555 *L 0 *D CLKBUFX2
*I *931:B I *C 63.945 28.855 *L 0.00158 *D NAND4XL
*I *873:A0 I *C 67.135 23.925 *L 0.00271 *D OAI21X1
*I *874:A I *C 61.045 24.215 *L 0.00157 *D NAND2XL

*CAP
1 *770:Y 3.67992e-05
2 *931:B 3.67992e-05
3 *873:A0 3.67992e-05
4 *874:A 3.67992e-05
5 *33:4 6.14562e-05
6 *33:5 6.14562e-05
7 *33:6 0.000194884
8 *33:7 0.000194884
9 *33:8 0.000102499
10 *33:9 0.000101293
11 *33:10 0.00015928
12 *33:11 0.00015928
13 *33:12 0.000641571
14 *33:13 0.000642247305
15 *33:14 9.07682e-05
16 *33:15 0.000141023
17 *33:16 8.32026e-05
18 *33:17 0.000173657
19 *33:18 0.000173657
20 *33:19 0.00048035
21 *33:20 0.000480517
22 *33:21 8.382e-05
23 *33:22 8.382e-05
24 *33:24 7.35299e-05
25 *33:25 7.47255e-05
26 *33:26 0.000219482
27 *33:27 0.000218277
28 *33:28 5.91728e-05
29 *33:29 5.79772e-05
30 *33:14 *31:3 8.515e-05
31 *33:15 *31:4 8.515e-05
32 *33:14 *31:4 3.685e-05
33 *33:15 *31:5 3.685e-05
34 *33:15 *31:6 4.378e-05
35 *33:16 *31:7 4.378e-05
36 *33:19 *31:8 5.923e-05
37 *33:20 *31:9 5.923e-05
38 *33:21 *31:8 4.314e-05
39 *33:22 *31:9 4.314e-05
40 *33:10 *31:3 2.17e-06
41 *33:11 *31:4 2.16999814e-06
42 *33:19 *126:138 2.948e-05
43 *33:20 *126:139 2.948e-05
44 *33:12 *126:134 0.00024705
45 *33:13 *126:135 0.00024705
46 *33:27 *126:45 3.456e-05
47 *33:26 *126:46 3.456e-05
48 *33:27 *126:46 5.417e-05
49 *33:26 *126:47 5.417e-05
50 *33:27 *126:48 3.769e-05
51 *33:26 *126:49 3.769e-05
52 *33:25 *126:43 4.956e-05
53 *33:24 *126:44 4.95600301e-05
54 *33:12 *153:9 4.935e-05
55 *33:13 *153:10 4.935e-05
56 *33:12 *153:10 2.402e-05
57 *33:13 *153:11 2.402e-05
58 *33:12 *153:11 0.00019957
59 *33:13 *153:12 0.000199569996
60 *33:12 *34:19 0.00049559
61 *33:13 *34:16 0.00049559
62 *33:14 *34:27 3.694e-05
63 *33:15 *34:25 3.694e-05
64 *33:15 *34:27 1.459e-05
65 *33:16 *34:25 1.459e-05
66 *33:15 *34:25 1.459e-05
67 *33:16 *34:21 1.459e-05
68 *33:17 *34:12 2.977e-05
69 *33:18 *34:13 2.977e-05
70 *33:19 *34:12 0.00022038
71 *33:20 *34:13 0.00022038
72 *33:21 *34:10 5.125e-05
73 *33:22 *34:11 5.125e-05
74 *33:4 *34:28 9.58e-06
75 *33:5 *34:26 9.58e-06
76 *33:8 *34:4 3.427e-05
77 *33:9 *34:5 3.427e-05
78 *33:8 *34:24 8.9e-06
79 *33:9 *34:23 8.9e-06
80 *33:8 *34:8 2.97e-06
81 *33:9 *34:9 2.97004626e-06

*RES
1 *33:25 *770:Y 1.40002
2 *33:24 *33:25 0.994282
3 *33:24 *33:27 0.124255
4 *33:26 *33:27 2.73433
5 *33:13 *33:26 1.40002
6 *33:13 *33:12 7.82999992
7 *33:12 *33:18 0.124255
8 *33:18 *33:17 2.11282
9 *33:20 *33:17 0.124255
10 *33:28 *874:A 1.40002
11 *33:20 *33:19 6.46283
12 *33:7 *873:A0 1.40002
13 *33:28 *33:29 0.24863
14 *33:22 *33:19 0.124255
15 *33:7 *33:6 1.49142
16 *33:9 *33:29 0.124255
17 *33:22 *33:21 1.36717
18 *33:10 *33:6 1.40002
19 *33:9 *33:8 1.74005
20 *33:21 *33:16 0.124255
21 *33:11 *33:10 1.36717
22 *33:15 *33:8 1.40002
23 *33:16 *33:15 1.11854
24 *33:5 *33:11 1.40002
25 *33:15 *33:14 1.36717
26 *33:4 *931:B 1.40002
27 *33:5 *33:4 0.497141
28 *33:4 *33:14 1.40002
29 *33:23 *33:4 0.193074
*END

*D_NET *34 0.00870483

*CONN
*I *771:Y O *C 15.515 34.365 *L 0 *D CLKBUFX2
*I *877:A0 I *C 58.435 23.925 *L 0.00157 *D OA21XL
*I *878:A I *C 59.885 24.215 *L 0.00157 *D NAND2XL
*I *931:D I *C 63.365 29.145 *L 0.00166 *D NAND4XL

*CAP
1 *771:Y 2.56651e-05
2 *877:A0 3.68102e-05
3 *878:A 3.68102e-05
4 *931:D 3.68102e-05
5 *34:4 9.83683e-05
6 *34:5 9.80741e-05
7 *34:6 7.67183e-05
8 *34:7 7.67183e-05
9 *34:8 4.37154e-05
10 *34:9 5.15205e-05
11 *34:10 0.000167316
12 *34:11 0.000167316
13 *34:12 0.00113399
14 *34:13 0.00113416
15 *34:15 0.000186716
16 *34:16 0.000300504
17 *34:17 4.59652e-05
18 *34:18 0.000186716
19 *34:19 0.000299829
20 *34:20 3.24491e-05
21 *34:21 4.40788e-05
22 *34:22 3.906e-05
23 *34:23 4.42346e-05
24 *34:24 4.51518e-05
25 *34:25 0.000145337
26 *34:26 5.03783e-05
27 *34:27 0.000134227
28 *34:28 5.03783e-05
29 *34:19 *33:12 0.00049559
30 *34:16 *33:13 0.00049559
31 *34:27 *33:14 3.694e-05
32 *34:25 *33:15 3.694e-05
33 *34:27 *33:15 1.459e-05
34 *34:25 *33:16 1.459e-05
35 *34:25 *33:15 1.459e-05
36 *34:21 *33:16 1.459e-05
37 *34:12 *33:17 2.977e-05
38 *34:13 *33:18 2.977e-05
39 *34:12 *33:19 0.00022038
40 *34:13 *33:20 0.00022038
41 *34:10 *33:21 5.125e-05
42 *34:11 *33:22 5.125e-05
43 *34:28 *33:4 9.58e-06
44 *34:26 *33:5 9.58e-06
45 *34:4 *33:8 3.427e-05
46 *34:5 *33:9 3.427e-05
47 *34:24 *33:8 8.9e-06
48 *34:23 *33:9 8.9e-06
49 *34:8 *33:8 2.97e-06
50 *34:9 *33:9 2.97004626e-06
51 *34:12 *126:134 0.00032066
52 *34:13 *126:135 0.00032066
53 *34:19 *126:129 0.00021027
54 *34:16 *126:130 0.00021027
55 *34:19 *126:130 0.00012455
56 *34:16 *126:133 0.00012455
57 *34:19 *126:133 8.679e-05
58 *34:16 *126:136 8.679e-05
59 *34:19 *126:136 3.572e-05
60 *34:16 *126:137 3.572e-05
61 *34:12 *126:131 1.25e-05
62 *34:13 *126:132 1.24999845e-05
63 *34:18 *24:2 0.0002486
64 *34:15 *24:3 0.000248599999

*RES
1 *34:17 *771:Y 0.386684
2 *34:18 *34:17 1.40006
3 *34:15 *34:18 2.48568
4 *34:16 *34:15 1.40006
5 *34:16 *34:19 5.71722
6 *34:13 *34:19 0.124225
7 *34:13 *34:12 11.061429
8 *34:11 *34:12 0.124225
9 *34:28 *931:D 1.40006
10 *34:11 *34:10 2.11284
11 *34:26 *34:28 0.372844
12 *34:10 *34:21 0.124225
13 *34:27 *34:26 1.40006
14 *34:21 *34:25 0.372844
15 *34:25 *34:27 1.49138
16 *34:24 *34:25 1.40006
17 *34:23 *34:24 0.372844
18 *34:23 *34:4 0.124225
19 *34:5 *34:4 0.994307
20 *34:8 *34:5 0.124225
21 *34:9 *878:A 1.40006
22 *34:9 *34:8 0.372844
23 *34:22 *34:9 0.124225
24 *34:6 *34:22 1.40006
25 *34:7 *34:6 0.497069
26 *34:20 *877:A0 1.40006
27 *34:20 *34:7 1.40006
28 *34:14 *34:20 0.096882
*END

*D_NET *35 0.00430255

*CONN
*I *772:Y O *C 50.895 68.875 *L 0 *D CLKBUFX2
*I *940:A0 I *C 73.225 55.245 *L 0.00164 *D AOI211XL

*CAP
1 *772:Y 3.67994e-05
2 *940:A0 3.67994e-05
3 *35:2 0.000295242
4 *35:3 0.000325387
5 *35:4 0.00018277
6 *35:5 0.00018277
7 *35:6 0.000710521
8 *35:7 0.0007114
9 *35:9 0.000127311
10 *35:10 0.000142986
11 *35:11 7.16556e-05
12 *35:12 7.16556e-05
13 *35:13 8.288e-05
14 *35:14 8.17076e-05
15 *35:15 5.20402e-05
16 *35:16 6.77043e-05
17 *35:17 8.02639e-05
18 *35:18 3.24573e-05
19 *35:19 8.11431e-05
20 *35:6 *27:6 3.14e-05
21 *35:7 *27:7 3.14e-05
22 *35:6 *27:7 8.04e-05
23 *35:7 *27:8 8.0400001e-05
24 *35:2 *377:3 0.00034807
25 *35:3 *377:4 0.00034807
26 *35:16 *377:3 4.67e-06
27 *35:15 *377:4 4.6700076e-06

*RES
1 *35:2 *772:Y 1.4
2 *35:3 *35:2 3.60423
3 *35:16 *35:3 0.372848
4 *35:15 *35:16 0.248604
5 *35:10 *35:15 0.248604
6 *35:9 *35:10 1.11854
7 *35:9 *35:12 0.124244
8 *35:11 *35:12 0.497092
9 *35:11 *35:14 0.124244
10 *35:13 *35:14 0.372848
11 *35:7 *35:13 1.4
12 *35:7 *35:6 7.58142853
13 *35:5 *35:6 0.124244
14 *35:5 *35:4 1.9886
15 *35:4 *35:17 0.124244
16 *35:17 *35:19 0.372848
17 *35:18 *940:A0 1.4
18 *35:18 *35:19 1.4
19 *35:8 *35:18 0.193076
*END

*D_NET *36 0.00044112

*CONN
*I *485:Y O *C 15.515 70.905 *L 0 *D CLKBUFX2
*I *494:D I *C 16.095 73.515 *L 0.0016 *D DFFQX1

*CAP
1 *485:Y 2.56595e-05
2 *494:D 3.67997e-05
3 *36:2 4.59603e-05
4 *36:3 4.64488e-05
5 *36:4 9.21401e-05
6 *36:5 0.0001199
7 *36:6 7.42105e-05

*RES
1 *36:6 *494:D 1.39999998
2 *36:5 *36:6 0.621429
3 *36:4 *36:5 0.497144
4 *36:3 *36:4 0.497144
5 *36:2 *36:3 1.39999998
6 *36:2 *485:Y 0.386658
*END

*D_NET *37 0.000523501

*CONN
*I *632:A I *C 47.125 55.245 *L 0.00155 *D DLY2X1
*I *639:Y O *C 43.355 55.245 *L 0 *D CLKBUFX2

*CAP
1 *632:A 3.67993e-05
2 *639:Y 3.67993e-05
3 *37:2 0.0001925
4 *37:3 0.0001925
5 *37:6 3.2449e-05
6 *37:7 3.2449e-05

*RES
1 *37:7 *632:A 1.39999
2 *37:5 *37:7 0.193064
3 *37:2 *37:7 1.39999
4 *37:3 *37:2 1.61571431
5 *37:6 *37:3 1.39999
6 *37:6 *639:Y 1.39999
7 *37:4 *37:6 0.193064
*END

*D_NET *38 0.000759957

*CONN
*I *640:Y O *C 15.515 42.775 *L 0 *D CLKBUFX2
*I *675:D I *C 20.445 45.095 *L 0.00216 *D DFFHQX1

*CAP
1 *640:Y 3.67995e-05
2 *675:D 3.67995e-05
3 *38:2 6.02294e-05
4 *38:3 6.02294e-05
5 *38:4 0.0001061
6 *38:5 0.0001061
7 *38:6 5.68489e-05
8 *38:7 5.68489e-05
9 *38:8 6.13902e-05
10 *38:9 6.04787e-05
11 *38:10 5.86104e-05
12 *38:11 5.95203e-05

*RES
1 *38:2 *675:D 1.39999998
2 *38:3 *38:2 0.621429
3 *38:11 *38:3 1.39999998
4 *38:10 *38:11 0.372858
5 *38:4 *38:10 0.124286
6 *38:5 *38:4 1.24286
7 *38:5 *38:9 0.124286
8 *38:8 *38:9 0.497144
9 *38:7 *38:8 1.39999998
10 *38:6 *38:7 0.372858
11 *640:Y *38:6 1.39999998
*END

*D_NET *39 0.00571098

*CONN
*I *773:Y O *C 16.385 18.705 *L 0 *D CLKBUFX2
*I *839:D I *C 71.485 19.285 *L 0.0016 *D DFFQX1

*CAP
1 *773:Y 3.6805e-05
2 *839:D 3.6805e-05
3 *39:2 9.76995e-05
4 *39:3 9.76995e-05
5 *39:4 0.000391901
6 *39:5 0.000391036
7 *39:6 0.000190122
8 *39:7 0.000205103
9 *39:8 0.000190092
10 *39:9 0.000105988
11 *39:10 0.000205103
12 *39:11 0.000105988
13 *39:12 0.000976011
14 *39:13 6.5128e-05
15 *39:14 0.00097692
16 *39:15 6.5128e-05
17 *39:14 *178:4 4.435e-05
18 *39:12 *178:5 4.435e-05
19 *39:14 *178:4 3.932e-05
20 *39:12 *178:5 3.932e-05
21 *39:14 *178:6 5.925e-05
22 *39:12 *178:7 5.92500034e-05
23 *39:14 *432:2 0.00019131
24 *39:12 *432:3 0.00019131
25 *39:14 *432:4 3.677e-05
26 *39:12 *432:5 3.677e-05
27 *39:10 *432:6 3.084e-05
28 *39:7 *432:7 3.084e-05
29 *39:10 *432:8 3.677e-05
30 *39:7 *432:9 3.677e-05
31 *39:11 *432:10 4.908e-05
32 *39:9 *432:11 4.90799937e-05
33 *39:14 *67:4 0.00010291
34 *39:12 *67:5 0.00010291
35 *39:14 *67:6 2.581e-05
36 *39:12 *67:7 2.581e-05
37 *39:14 *67:8 4.699e-05
38 *39:12 *67:9 4.699e-05
39 *39:10 *67:8 5.414e-05
40 *39:7 *67:9 5.414e-05
41 *39:11 *67:8 6.918e-05
42 *39:9 *67:9 6.91799906e-05

*RES
1 *39:15 *839:D 1.39993
2 *39:13 *39:15 0.87003
3 *39:14 *39:13 1.39993
4 *39:12 *39:14 13.1742859
5 *39:11 *39:12 0.124233
6 *39:9 *39:11 1.86429
7 *39:9 *39:10 0.124233
8 *39:7 *39:10 2.61009
9 *39:7 *39:8 0.124233
10 *39:6 *39:8 2.11276
11 *39:5 *39:6 0.124233
12 *39:4 *39:5 3.85282
13 *39:2 *773:Y 1.39993
14 *39:3 *39:4 1.39993
15 *39:3 *39:2 0.621364
*END

*D_NET *40 0.00399645

*CONN
*I *758:A I *C 63.655 34.655 *L 0.00175 *D DLY4X1
*I *774:Y O *C 44.225 53.215 *L 0 *D CLKBUFX2

*CAP
1 *758:A 3.67985e-05
2 *774:Y 3.67985e-05
3 *40:2 4.86911e-05
4 *40:3 4.86911e-05
5 *40:4 0.000279753
6 *40:5 0.00028066
7 *40:6 0.000148463
8 *40:7 0.000149309
9 *40:8 0.000108743
10 *40:9 0.000108743
11 *40:10 4.56689e-05
12 *40:11 4.47618e-05
13 *40:12 0.000167848
14 *40:13 0.000166941
15 *40:14 5.3292e-05
16 *40:15 5.41991e-05
17 *40:16 0.000155559
18 *40:17 0.000155559
19 *40:18 0.000285801328
20 *40:19 0.000285801328
21 *40:20 0.00013623
22 *40:21 0.00013623
23 *40:22 0.000206378
24 *40:23 0.000207228
25 *40:23 *354:11 4.579e-05
26 *40:22 *354:12 4.579e-05
27 *40:23 *354:9 1.882e-05
28 *40:22 *354:10 1.882e-05
29 *40:23 *354:21 9.73e-06
30 *40:22 *354:22 9.73e-06
31 *40:21 *354:22 2.299e-05
32 *40:20 *354:23 2.29900047e-05
33 *40:23 *479:69 8.832e-05
34 *40:22 *479:70 8.83200027e-05
35 *40:8 *126:153 4.019e-05
36 *40:9 *126:154 4.019e-05
37 *40:10 *126:153 3.746e-05
38 *40:11 *126:154 3.746e-05
39 *40:4 *126:143 6.085e-05
40 *40:5 *126:141 6.08500021e-05

*RES
1 *40:3 *758:A 1.39999
2 *40:3 *40:2 0.372865
3 *40:23 *40:2 1.39999
4 *40:22 *40:23 2.98287
5 *40:21 *40:22 0.124305
6 *40:20 *40:21 1.49141
7 *40:20 *40:6 0.124305
8 *40:7 *40:6 1.36715
9 *40:5 *40:7 1.39999
10 *40:5 *40:4 3.23142862
11 *40:4 *40:9 0.124305
12 *40:9 *40:8 1.11859
13 *40:11 *40:8 0.124305
14 *40:11 *40:10 0.372865
15 *40:19 *40:10 1.39999
16 *40:18 *40:19 2.4857
17 *40:12 *774:Y 1.39999
18 *40:15 *40:18 1.39999
19 *40:13 *40:12 0.99429
20 *40:15 *40:14 0.372865
21 *40:16 *40:13 0.124305
22 *40:17 *40:14 0.124305
23 *40:17 *40:16 1.49141
*END

*D_NET *41 0.00369996

*CONN
*I *757:A I *C 70.325 40.165 *L 0.00172 *D DLY3X1
*I *775:Y O *C 75.545 70.905 *L 0 *D CLKBUFX2

*CAP
1 *757:A 3.68034e-05
2 *775:Y 3.68034e-05
3 *41:2 0.000265891
4 *41:3 0.000265891
5 *41:4 6.19828e-05
6 *41:5 6.11345e-05
7 *41:6 0.000158007
8 *41:7 0.000158007
9 *41:8 6.75782e-05
10 *41:9 6.84266e-05
11 *41:12 0.00118201
12 *41:13 3.24534e-05
13 *41:14 3.38072e-05
14 *41:15 0.00118289
15 *41:16 4.45829e-05
16 *41:17 4.36984e-05

*RES
1 *41:3 *757:A 1.39997
2 *41:3 *41:2 1.36717
3 *41:9 *41:2 1.39997
4 *41:9 *41:8 0.497075
5 *41:7 *41:8 0.124225
6 *41:7 *41:6 1.4914
7 *41:6 *41:5 0.124225
8 *41:5 *41:4 0.37285
9 *41:16 *41:4 1.39997
10 *41:16 *41:17 0.37285
11 *41:12 *41:17 0.124225
12 *41:12 *41:15 11.4342861
13 *41:14 *41:15 1.39997
14 *41:11 *41:14 0.193142
15 *41:13 *41:14 1.39997
16 *41:13 *775:Y 1.39997
17 *41:10 *41:13 0.193142
*END

*D_NET *42 0.00405759

*CONN
*I *756:A I *C 71.195 24.505 *L 0.00172 *D DLY3X1
*I *776:Y O *C 73.225 65.685 *L 0 *D CLKBUFX2

*CAP
1 *756:A 3.67917e-05
2 *776:Y 3.67917e-05
3 *42:2 0.000226508
4 *42:3 0.000303471
5 *42:4 0.000199768
6 *42:5 0.000122806
7 *42:6 0.00112987
8 *42:7 0.00112899
9 *42:11 3.37918e-05
10 *42:12 0.000268938
11 *42:13 0.000268059
12 *42:14 3.2447e-05
13 *42:15 3.37918e-05
14 *42:6 *365:14 0.00011778
15 *42:7 *365:15 0.00011778

*RES
1 *42:9 *42:14 0.193005
2 *42:14 *776:Y 1.40004
3 *42:10 *42:15 0.193005
4 *42:15 *42:14 1.40004
5 *42:5 *756:A 1.40004
6 *42:6 *42:15 1.40004
7 *42:5 *42:4 0.621448
8 *42:7 *42:6 12.304286
9 *42:4 *42:3 0.745737
10 *42:13 *42:7 0.12429
11 *42:3 *42:2 2.11292
12 *42:12 *42:13 2.61008
13 *42:11 *42:2 1.40004
14 *42:11 *42:12 1.40004
15 *42:8 *42:11 0.193005
*END

*D_NET *43 0.00217776

*CONN
*I *759:A I *C 71.195 36.975 *L 0.00172 *D DLY3X1
*I *777:Y O *C 71.775 55.245 *L 0 *D CLKBUFX2

*CAP
1 *759:A 3.68041e-05
2 *777:Y 1.31427e-05
3 *43:2 0.000759964
4 *43:3 0.00076087
5 *43:4 0.000282834
6 *43:5 4.04149e-05
7 *43:6 0.00028374

*RES
1 *43:5 *777:Y 0.193286
2 *43:6 *43:5 1.40004
3 *43:4 *43:6 1.36711
4 *43:2 *43:4 0.124255
5 *43:3 *43:2 6.46285725
6 *759:A *43:3 1.40004
*END

*D_NET *44 0.00178718

*CONN
*I *760:A I *C 70.325 29.725 *L 0.00172 *D DLY3X1
*I *778:Y O *C 70.325 44.805 *L 0 *D CLKBUFX2

*CAP
1 *760:A 3.68021e-05
2 *778:Y 1.28222e-05
3 *44:2 0.00038546
4 *44:3 0.000277001
5 *44:4 0.000204461
6 *44:5 0.000203891
7 *44:6 0.000285353
8 *44:7 4.01017e-05
9 *44:8 0.00017837
10 *44:9 8.19209e-05
11 *44:10 8.10092e-05

*RES
1 *44:7 *778:Y 0.193324
2 *44:8 *44:7 1.40001
3 *44:6 *44:8 1.36715
4 *44:5 *44:6 0.869987
5 *44:9 *760:A 1.40001
6 *44:4 *44:5 0.745703
7 *44:9 *44:10 0.745703
8 *44:2 *44:4 0.869987
9 *44:3 *44:10 0.124284
10 *44:3 *44:2 1.86428571
*END

*D_NET *45 0.00111532

*CONN
*I *641:Y O *C 15.515 32.335 *L 0 *D CLKBUFX2
*I *672:D I *C 22.185 29.725 *L 0.00164 *D DFFQXL

*CAP
1 *641:Y 3.67987e-05
2 *672:D 3.67987e-05
3 *45:2 7.60784e-05
4 *45:3 7.60784e-05
5 *45:4 0.00036869
6 *45:5 0.00036869
7 *45:6 7.60896e-05
8 *45:7 7.60896e-05

*RES
1 *45:6 *672:D 1.40002
2 *45:6 *45:7 0.621431
3 *45:4 *45:7 1.40002
4 *45:5 *45:4 2.85857153
5 *45:2 *641:Y 1.40002
6 *45:3 *45:5 1.40002
7 *45:3 *45:2 0.497162
*END

*D_NET *46 0.00290638

*CONN
*I *642:Y O *C 51.765 55.245 *L 0 *D CLKBUFX2
*I *681:D I *C 46.835 34.655 *L 0.00216 *D DFFHQX1

*CAP
1 *642:Y 3.67957e-05
2 *681:D 3.67957e-05
3 *46:2 9.02287e-05
4 *46:3 9.11418e-05
5 *46:4 9.2024e-05
6 *46:5 9.2024e-05
7 *46:6 0.000262228
8 *46:7 0.000262228
9 *46:8 0.00050713
10 *46:9 0.00050713
11 *46:10 5.358e-05
12 *46:11 5.44932e-05
13 *46:8 *125:184 1.225e-05
14 *46:9 *125:168 1.225e-05
15 *46:8 *125:185 3.7e-05
16 *46:9 *125:186 3.7e-05
17 *46:2 *125:187 3.769e-05
18 *46:3 *125:178 3.769e-05
19 *46:2 *125:178 3.746e-05
20 *46:3 *125:179 3.746e-05
21 *46:2 *125:78 9.58e-06
22 *46:3 *125:79 9.58000308e-06
23 *46:8 *375:7 6.505e-05
24 *46:9 *375:8 6.505e-05
25 *46:8 *375:7 4.23e-05
26 *46:9 *375:8 4.23000006e-05
27 *46:2 *89:13 0.00013498
28 *46:3 *89:12 0.00013498
29 *46:4 *89:13 3.398e-05
30 *46:5 *89:12 3.39800001e-05

*RES
1 *46:8 *642:Y 1.40003
2 *46:9 *46:8 5.96571445
3 *46:6 *46:9 1.40003
4 *46:7 *46:6 2.11289
5 *46:11 *46:7 1.40003
6 *46:3 *681:D 1.40003
7 *46:10 *46:11 0.372857
8 *46:3 *46:2 1.36717
9 *46:4 *46:10 0.124255
10 *46:5 *46:2 0.124255
11 *46:5 *46:4 1.11857
*END

*D_NET *47 0.00229145

*CONN
*I *779:Y O *C 65.975 47.995 *L 0 *D CLKBUFX2
*I *863:AN I *C 57.275 39.875 *L 0.00174 *D NOR2BXL

*CAP
1 *779:Y 3.68025e-05
2 *863:AN 3.68025e-05
3 *47:2 0.000155704
4 *47:3 0.000155704
5 *47:4 0.000261754
6 *47:5 0.000261754
7 *47:6 0.000691471328
8 *47:7 0.000691471328

*RES
1 *47:2 *779:Y 1.39998
2 *47:3 *47:2 0.745703
3 *47:6 *47:3 1.39998
4 *47:7 *47:6 3.72857141
5 *47:4 *47:7 1.39998
6 *47:5 *47:4 2.7343
7 *863:AN *47:5 1.39998
*END

*D_NET *48 0.00198755

*CONN
*I *643:Y O *C 37.265 34.365 *L 0 *D CLKBUFX2
*I *678:D I *C 50.895 36.975 *L 0.00164 *D DFFQXL

*CAP
1 *643:Y 3.67959e-05
2 *678:D 3.67959e-05
3 *48:2 0.00081357
4 *48:3 0.00081357
5 *48:5 3.24509e-05
6 *48:6 0.000127184
7 *48:7 0.000127184

*RES
1 *48:7 *678:D 1.40001
2 *48:6 *48:7 1.11853
3 *48:2 *48:6 1.40001
4 *48:3 *48:2 5.84142876
5 *48:5 *48:3 1.40001
6 *48:5 *643:Y 1.40001
7 *48:4 *48:5 0.193062
*END

*D_NET *49 0.00315921

*CONN
*I *780:Y O *C 32.915 16.675 *L 0 *D CLKBUFX2
*I *838:D I *C 57.275 19.285 *L 0.0016 *D DFFQX1

*CAP
1 *780:Y 3.68044e-05
2 *838:D 3.68044e-05
3 *49:2 0.00140558
4 *49:3 0.00140468
5 *49:4 7.53675e-05
6 *49:5 7.53675e-05
7 *49:6 4.10296e-05
8 *49:7 4.17803e-05
9 *49:8 4.17803e-05

*RES
1 *49:8 *838:D 1.39994
2 *49:7 *49:8 0.248511
3 *49:2 *49:7 1.39994
4 *49:3 *49:2 10.4399996
5 *49:6 *49:3 0.124255
6 *49:5 *49:6 1.39994
7 *49:4 *49:5 0.745691
8 *780:Y *49:4 1.39994
*END

*D_NET *50 0.0003019

*CONN
*I *781:Y O *C 75.835 73.515 *L 0 *D CLKBUFX4
*I *852:AN I *C 74.385 73.805 *L 0.00174 *D NOR2BXL

*CAP
1 *781:Y 3.67998e-05
2 *852:AN 3.67998e-05
3 *50:2 7.042e-05
4 *50:3 4.37306e-05
5 *50:4 5.93898e-05
6 *50:5 5.47596e-05

*RES
1 *50:5 *781:Y 1.39999998
2 *50:3 *50:5 0.248572
3 *50:3 *50:4 0.124286
4 *50:2 *50:4 0.372858
5 *852:AN *50:2 1.39999998
*END

*D_NET *51 0.000596602

*CONN
*I *782:Y O *C 62.495 55.245 *L 0 *D CLKBUFX2
*I *857:AN I *C 63.655 58.145 *L 0.00174 *D NOR2BXL

*CAP
1 *782:Y 3.68009e-05
2 *857:AN 3.68009e-05
3 *51:2 0.000160109
4 *51:3 0.0001746
5 *51:4 5.53093e-05
6 *51:5 4.08213e-05
7 *51:6 4.60804e-05
8 *51:7 4.60804e-05

*RES
1 *51:2 *857:AN 1.39999998
2 *51:3 *51:2 1.36714
3 *51:7 *51:3 0.248572
4 *51:6 *51:7 0.124286
5 *51:5 *782:Y 1.39999998
6 *51:4 *51:6 0.248572
7 *51:4 *51:5 0.248572
*END

*D_NET *52 0.00106508

*CONN
*I *783:Y O *C 61.915 47.995 *L 0 *D CLKBUFX2
*I *858:AN I *C 55.825 47.705 *L 0.00174 *D NOR2BX1

*CAP
1 *783:Y 1.28218e-05
2 *858:AN 3.68029e-05
3 *52:3 4.47378e-05
4 *52:4 4.47378e-05
5 *52:5 0.00041271
6 *52:6 4.01028e-05
7 *52:7 3.02282e-05
8 *52:8 3.02282e-05
9 *52:9 0.00041271

*RES
1 *52:3 *858:AN 1.4
2 *52:3 *52:4 0.248587
3 *52:5 *52:4 1.4
4 *52:6 *783:Y 0.193324
5 *52:5 *52:9 2.4857142
6 *52:7 *52:6 1.4
7 *52:8 *52:9 1.4
8 *52:7 *52:8 0.124293
9 *52:2 *52:8 0.182856
*END

*D_NET *53 0.00100605

*CONN
*I *755:A I *C 56.115 45.095 *L 0.00184 *D DLY1X4
*I *784:Y O *C 63.075 44.805 *L 0 *D CLKBUFX2

*CAP
1 *755:A 3.67976e-05
2 *784:Y 3.67976e-05
3 *53:2 0.0002481
4 *53:3 0.0002481
5 *53:4 3.80999e-05
6 *53:5 3.80999e-05
7 *53:8 3.24516e-05
8 *53:9 8.12122e-05
9 *53:10 9.70291e-05
10 *53:11 8.25902e-05
11 *53:12 6.67695e-05

*RES
1 *53:7 *53:5 0.0643276
2 *53:5 *784:Y 1.4
3 *53:5 *53:4 0.124286
4 *53:12 *53:4 1.4
5 *53:11 *53:12 0.621429
6 *53:2 *53:11 0.248571
7 *53:3 *53:2 1.98857141
8 *53:3 *53:10 0.248571
9 *53:9 *53:10 0.372857
10 *53:8 *755:A 1.4
11 *53:8 *53:9 1.4
12 *53:6 *53:8 0.193074
*END

*D_NET *54 0.000675659

*CONN
*I *633:A I *C 39.875 55.245 *L 0.00155 *D DLY2X1
*I *644:Y O *C 37.265 58.435 *L 0 *D CLKBUFX2

*CAP
1 *633:A 3.68003e-05
2 *644:Y 3.68003e-05
3 *54:2 8.75208e-05
4 *54:3 8.75208e-05
5 *54:4 6.81994e-05
6 *54:5 6.81994e-05
7 *54:6 0.00014531
8 *54:7 0.00014531

*RES
1 *54:5 *633:A 1.39999998
2 *54:5 *54:4 0.497144
3 *54:7 *54:4 1.39999998
4 *54:6 *54:7 1.11857
5 *54:2 *644:Y 1.39999998
6 *54:3 *54:6 1.39999998
7 *54:3 *54:2 0.870001
*END

*D_NET *55 0.000318201

*CONN
*I *785:Y O *C 76.705 65.685 *L 0 *D CLKBUFX2
*I *850:AN I *C 75.545 65.975 *L 0.00174 *D NOR2BXL

*CAP
1 *785:Y 3.68005e-05
2 *850:AN 1.28201e-05
3 *55:2 6.16998389e-05
4 *55:3 6.08205e-05
5 *55:6 4.01004e-05
6 *55:7 3.245e-05
7 *55:8 4.10598e-05
8 *55:9 3.245e-05

*RES
1 *55:5 *55:9 0.193051
2 *55:9 *785:Y 1.39999998
3 *55:2 *55:9 1.39999998
4 *55:3 *55:2 0.621429
5 *55:6 *850:AN 0.193329
6 *55:3 *55:8 0.124286
7 *55:7 *55:6 1.39999998
8 *55:7 *55:8 1.39999998
9 *55:4 *55:7 0.193051
*END

*D_NET *56 0.00026008

*CONN
*I *786:Y O *C 57.855 53.215 *L 0 *D CLKBUFX2
*I *851:AN I *C 56.695 52.925 *L 0.00174 *D NOR2BXL

*CAP
1 *786:Y 1.28204e-05
2 *851:AN 3.68e-05
3 *56:2 3.91003e-05
4 *56:3 3.04194e-05
5 *56:4 4.608e-05
6 *56:5 4.00997e-05
7 *56:6 5.476e-05

*RES
1 *56:5 *786:Y 0.193329
2 *56:6 *56:5 1.39999998
3 *56:4 *56:6 0.248572
4 *56:3 *56:4 0.124286
5 *56:2 *56:3 0.124286
6 *851:AN *56:2 1.39999998
*END

*D_NET *57 0.00026062

*CONN
*I *787:Y O *C 76.125 55.245 *L 0 *D CLKBUFX2
*I *854:AN I *C 75.835 52.925 *L 0.00174 *D NOR2BXL

*CAP
1 *787:Y 3.67995e-05
2 *854:AN 1.28198e-05
3 *57:2 4.01009e-05
4 *57:3 8.545e-05
5 *57:4 8.545e-05

*RES
1 *57:4 *787:Y 1.39999998
2 *57:3 *57:4 0.994287
3 *57:2 *57:3 1.39999998
4 *854:AN *57:2 0.193329
*END

*D_NET *58 0.000299661

*CONN
*I *788:Y O *C 76.705 47.995 *L 0 *D CLKBUFX2
*I *830:D I *C 76.705 45.385 *L 0.0016 *D DFFQX1

*CAP
1 *788:Y 3.68005e-05
2 *830:D 3.68005e-05
3 *58:2 0.00011303
4 *58:3 0.00011303

*RES
1 *58:3 *788:Y 1.39999998
2 *58:2 *58:3 1.11857
3 *830:D *58:2 1.39999998
*END

*D_NET *59 0.00112577

*CONN
*I *645:Y O *C 15.805 27.115 *L 0 *D CLKBUFX2
*I *673:D I *C 20.155 29.725 *L 0.00164 *D DFFQXL

*CAP
1 *645:Y 3.67997e-05
2 *673:D 3.67997e-05
3 *59:2 0.000139881
4 *59:3 0.000141078
5 *59:4 3.9071e-05
6 *59:5 0.00032428
7 *59:6 4.17875e-05
8 *59:7 0.00032428
9 *59:8 4.17875e-05

*RES
1 *59:8 *673:D 1.4
2 *59:6 *59:8 0.248564
3 *59:7 *59:6 1.4
4 *59:5 *59:7 1.74000001
5 *59:4 *59:5 1.4
6 *59:2 *59:4 0.124282
7 *59:3 *59:2 0.87
8 *645:Y *59:3 1.4
*END

*D_NET *60 0.000677737

*CONN
*I *646:Y O *C 35.235 65.685 *L 0 *D CLKBUFX2
*I *665:D I *C 32.045 68.295 *L 0.0016 *D DFFQX1

*CAP
1 *646:Y 3.68001e-05
2 *665:D 3.68001e-05
3 *60:2 3.63995e-05
4 *60:3 3.63995e-05
5 *60:4 9.12701e-05
6 *60:5 9.12701e-05
7 *60:6 6.45285e-05
8 *60:7 0.00010987
9 *60:8 6.36498e-05
10 *60:9 0.00011075

*RES
1 *60:3 *646:Y 1.39999998
2 *60:3 *60:2 0.248572
3 *60:9 *60:2 1.39999998
4 *60:7 *60:9 0.870001
5 *60:7 *60:8 0.124286
6 *60:4 *665:D 1.39999998
7 *60:6 *60:8 0.497144
8 *60:5 *60:4 0.745715
9 *60:5 *60:6 1.39999998
*END

*D_NET *61 0.00115837

*CONN
*I *647:Y O *C 33.785 43.065 *L 0 *D CLKBUFX3
*I *718:A1 I *C 42.485 39.875 *L 0.00271 *D OAI32X1

*CAP
1 *647:Y 3.68019e-05
2 *718:A1 3.68019e-05
3 *61:2 5.68427e-05
4 *61:3 5.68427e-05
5 *61:4 0.000185409
6 *61:5 0.000186089
7 *61:6 0.00028391
8 *61:7 0.00028323
9 *61:9 3.24481e-05

*RES
1 *61:2 *647:Y 1.40001
2 *61:3 *61:2 0.497135
3 *61:5 *61:3 1.40001
4 *61:5 *61:4 1.24287
5 *61:7 *61:4 0.124284
6 *61:7 *61:6 2.1128571
7 *61:9 *718:A1 1.40001
8 *61:9 *61:6 1.40001
9 *61:8 *61:9 0.193051
*END

*D_NET *62 0.00241843

*CONN
*I *789:Y O *C 52.635 68.875 *L 0 *D CLKBUFX2
*I *911:A I *C 59.305 71.195 *L 0.00157 *D NAND2XL
*I *813:B I *C 63.945 63.655 *L 0.00163 *D NAND4BXL
*I *930:B I *C 59.015 69.165 *L 0.00285 *D NAND3X1
*I *910:A0 I *C 57.855 70.905 *L 0.00271 *D OAI21X1

*CAP
1 *789:Y 3.68016e-05
2 *911:A 2.56646e-05
3 *813:B 3.68016e-05
4 *930:B 3.68016e-05
5 *910:A0 3.89577e-05
6 *62:5 7.96542e-05
7 *62:6 8.08192e-05
8 *62:7 5.54502e-05
9 *62:8 5.54502e-05
10 *62:9 0.000275347
11 *62:10 0.00056976
12 *62:11 0.000137617
13 *62:12 0.000137617
14 *62:13 0.000115717
15 *62:14 0.000114543
16 *62:15 0.000328215
17 *62:16 4.07661e-05
18 *62:17 5.12684e-05
19 *62:18 4.1792e-05
20 *62:19 4.60607e-05
21 *62:20 4.4887e-05
22 *62:21 6.84303e-05

*RES
1 *62:6 *813:B 1.40002
2 *62:6 *62:5 0.745695
3 *910:A0 *62:21 0.580018
4 *62:21 *911:A 0.386678
5 *62:5 *62:12 0.12429
6 *62:19 *62:21 1.40002
7 *62:12 *62:11 1.11856
8 *62:20 *62:19 0.248579
9 *62:14 *62:11 0.12429
10 *62:18 *930:B 1.40002
11 *62:20 *62:16 0.12429
12 *62:14 *62:13 0.745695
13 *62:18 *62:17 0.248579
14 *62:17 *62:16 0.372869
15 *62:9 *62:13 1.40002
16 *62:10 *62:17 1.40002
17 *62:10 *62:9 2.11284
18 *62:15 *62:10 2.73428583
19 *62:7 *62:15 1.40002
20 *62:8 *62:7 0.372869
21 *789:Y *62:8 1.40002
*END

*D_NET *63 0.00219267

*CONN
*I *486:Y O *C 17.255 70.905 *L 0 *D CLKBUFX2
*I *532:B I *C 20.445 65.975 *L 0.00171 *D NOR2XL
*I *504:A I *C 17.835 68.585 *L 0.0017 *D MXI2XL
*I *554:A I *C 19.575 65.685 *L 0.00273 *D INVX1
*I *521:A0N I *C 20.735 71.195 *L 0.00167 *D OAI2BB1XL

*CAP
1 *486:Y 3.68016e-05
2 *532:B 3.68016e-05
3 *504:A 3.68016e-05
4 *554:A 3.68016e-05
5 *521:A0N 3.68016e-05
6 *63:5 0.000164168
7 *63:6 0.000178598
8 *63:7 7.38094e-05
9 *63:8 5.938e-05
10 *63:9 7.14726e-05
11 *63:10 7.26707e-05
12 *63:11 0.000165499
13 *63:12 9.21718e-05
14 *63:13 9.24093e-05
15 *63:14 9.24093e-05
16 *63:15 6.38789e-05
17 *63:16 4.16394e-05
18 *63:17 7.57305e-05
19 *63:18 0.00022891
20 *63:19 0.000213279
21 *63:19 *123:6 0.00016132
22 *63:18 *123:7 0.00016132

*RES
1 *63:8 *521:A0N 1.40001
2 *63:10 *532:B 1.40001
3 *63:8 *63:7 0.248568
4 *63:10 *63:9 0.372851
5 *63:19 *63:7 0.248568
6 *63:12 *554:A 1.40001
7 *63:18 *63:9 0.124284
8 *63:18 *63:19 2.1128571
9 *63:12 *63:11 0.497135
10 *63:11 *63:18 0.248568
11 *63:11 *63:17 0.497135
12 *63:13 *63:17 1.40001
13 *63:14 *63:13 0.745703
14 *63:16 *504:A 1.40001
15 *63:15 *63:14 1.40001
16 *63:15 *63:16 0.248568
17 *63:5 *486:Y 1.40001
18 *63:6 *63:15 0.248568
19 *63:6 *63:5 1.24287
*END

*D_NET *64 0.00185455

*CONN
*I *487:Y O *C 22.185 70.905 *L 0 *D CLKBUFX2
*I *533:A I *C 23.345 65.685 *L 0.00162 *D NOR2XL
*I *532:A I *C 20.735 65.685 *L 0.00162 *D NOR2XL
*I *503:A I *C 21.025 65.975 *L 0.0017 *D MXI2XL
*I *521:A1N I *C 21.315 70.905 *L 0.00173 *D OAI2BB1XL

*CAP
1 *487:Y 3.86399e-05
2 *533:A 3.67995e-05
3 *532:A 3.67995e-05
4 *503:A 3.67995e-05
5 *521:A1N 6.59218e-05
6 *64:5 7.54218e-05
7 *64:6 0.000172201
8 *64:7 9.798e-05
9 *64:8 0.00028717
10 *64:9 0.00027274
11 *64:10 5.82096e-05
12 *64:11 5.82096e-05
13 *64:12 8.12805e-05
14 *64:13 8.00798e-05
15 *64:14 7.51326e-05
16 *64:15 0.000143872
17 *64:16 8.55704e-05
18 *64:17 7.586e-05
19 *64:18 7.586e-05

*RES
1 *64:18 *533:A 1.4
2 *64:17 *64:18 0.497143
3 *64:10 *64:17 1.4
4 *64:11 *64:10 0.621429
5 *64:9 *64:11 1.4
6 *521:A1N *487:Y 0.58001
7 *64:9 *64:8 1.98857141
8 *64:5 *521:A1N 1.4
9 *64:6 *64:8 0.248571
10 *64:6 *64:5 0.745714
11 *64:7 *64:6 0.621429
12 *64:14 *503:A 1.4
13 *64:16 *64:7 0.124286
14 *64:14 *64:15 0.248571
15 *64:15 *64:16 0.497143
16 *64:13 *64:15 0.124286
17 *64:12 *64:13 0.372857
18 *532:A *64:12 1.4
*END

*D_NET *65 0.00598406

*CONN
*I *768:A I *C 40.165 63.365 *L 0.00172 *D CLKBUFX2
*I *790:Y O *C 68.875 32.335 *L 0 *D CLKBUFX2

*CAP
1 *768:A 3.68004e-05
2 *790:Y 3.68004e-05
3 *65:2 0.000104561
4 *65:3 0.000104561
5 *65:4 0.000127095
6 *65:5 0.000127095
7 *65:6 0.00087293
8 *65:7 0.00087381
9 *65:8 0.00029899
10 *65:9 0.00029899
11 *65:10 0.000333631
12 *65:11 0.00033275
13 *65:12 0.000146562
14 *65:13 0.000147442
15 *65:14 0.000279763
16 *65:15 0.000279763
17 *65:16 0.000278163
18 *65:17 0.000278163
19 *65:19 4.26672e-05
20 *65:20 4.35472e-05
21 *65:21 3.24537e-05
22 *65:12 *364:17 7.386e-05
23 *65:13 *364:18 7.386e-05
24 *65:16 *364:17 8.651e-05
25 *65:17 *364:18 8.65100005e-05
26 *65:12 *448:6 6.641e-05
27 *65:13 *448:7 6.641e-05
28 *65:14 *448:8 5.922e-05
29 *65:15 *448:9 5.922e-05
30 *65:16 *448:8 0.00016778
31 *65:17 *448:9 0.000167779993

*RES
1 *65:4 *768:A 1.40002
2 *65:5 *65:4 0.62143
3 *65:7 *65:5 1.40002
4 *65:7 *65:6 8.57571411
5 *65:9 *65:6 0.124312
6 *65:9 *65:8 2.73435
7 *65:8 *65:19 0.124312
8 *65:19 *65:20 0.372806
9 *65:10 *65:20 1.40002
10 *65:11 *65:10 2.98284
11 *65:11 *65:14 0.124312
12 *65:15 *65:14 3.10715
13 *65:16 *65:15 0.124312
14 *65:17 *65:16 4.47433
15 *65:17 *65:12 0.124312
16 *65:13 *65:12 2.11292
17 *65:3 *65:13 1.40002
18 *65:3 *65:2 0.497118
19 *65:21 *65:2 1.40002
20 *65:21 *790:Y 1.40002
21 *65:18 *65:21 0.193011
*END

*D_NET *66 0.000581549

*CONN
*I *634:A I *C 30.305 39.875 *L 0.00178 *D DLY1X1
*I *648:Y O *C 26.535 39.585 *L 0 *D CLKBUFX2

*CAP
1 *634:A 3.67996e-05
2 *648:Y 3.67996e-05
3 *66:2 3.01701e-05
4 *66:3 3.01701e-05
5 *66:4 0.00020758
6 *66:5 0.00020758
7 *66:8 3.24507e-05

*RES
1 *66:2 *634:A 1.39999
2 *66:7 *66:2 0.182858
3 *66:3 *66:2 0.12428
4 *66:4 *66:3 1.39999
5 *66:5 *66:4 1.61571431
6 *66:8 *66:5 1.39999
7 *66:8 *648:Y 1.39999
8 *66:6 *66:8 0.193064
*END

*D_NET *67 0.00510111

*CONN
*I *791:Y O *C 61.045 27.115 *L 0 *D CLKBUFX2
*I *795:A I *C 24.505 16.385 *L 0.00178 *D DLY1X1

*CAP
1 *791:Y 3.67981e-05
2 *795:A 3.67981e-05
3 *67:2 0.000442831
4 *67:3 0.000442831
5 *67:4 0.000261645
6 *67:5 0.000261607
7 *67:6 0.000101211
8 *67:7 0.000100329
9 *67:8 0.00060761
10 *67:9 0.00060852
11 *67:11 3.24525e-05
12 *67:12 4.68078e-05
13 *67:13 6.26302e-05
14 *67:14 0.000136459
15 *67:15 6.14323e-05
16 *67:16 0.000136459
17 *67:17 5.59911e-05
18 *67:18 4.561e-05
19 *67:19 5.59911e-05
20 *67:16 *358:5 3.356e-05
21 *67:14 *358:6 3.356e-05
22 *67:18 *358:5 3.677e-05
23 *67:15 *358:6 3.677e-05
24 *67:13 *358:5 3.751e-05
25 *67:12 *358:6 3.75099952e-05
26 *67:4 *39:14 0.00010291
27 *67:5 *39:12 0.00010291
28 *67:6 *39:14 2.581e-05
29 *67:7 *39:12 2.581e-05
30 *67:8 *39:14 4.699e-05
31 *67:9 *39:12 4.699e-05
32 *67:8 *39:10 5.414e-05
33 *67:9 *39:7 5.414e-05
34 *67:8 *39:11 6.918e-05
35 *67:9 *39:9 6.91799906e-05
36 *67:8 *171:4 3.751e-05
37 *67:9 *171:5 3.751e-05
38 *67:8 *171:5 8.753e-05
39 *67:9 *171:6 8.753e-05
40 *67:8 *171:6 3.751e-05
41 *67:9 *171:7 3.75099973e-05
42 *67:8 *80:6 2.432e-05
43 *67:9 *80:7 2.432e-05
44 *67:6 *80:8 2.513e-05
45 *67:7 *80:9 2.513e-05
46 *67:8 *80:8 0.00016467
47 *67:9 *80:9 0.000164670003

*RES
1 *67:19 *791:Y 1.39994
2 *67:17 *67:19 0.248625
3 *67:18 *67:17 1.39994
4 *67:15 *67:18 0.372865
5 *67:15 *67:16 0.248625
6 *67:14 *67:16 1.49146
7 *67:13 *67:14 0.248625
8 *67:12 *67:13 0.372865
9 *67:2 *67:12 1.39994
10 *67:3 *67:2 4.34999
11 *67:6 *67:3 1.39994
12 *67:7 *67:6 1.24283
13 *67:7 *67:4 0.12424
14 *67:5 *67:4 2.73429
15 *67:8 *67:5 0.12424
16 *67:9 *67:8 9.445714
17 *67:11 *795:A 1.39994
18 *67:11 *67:9 1.39994
19 *67:10 *67:11 0.19299
*END

*D_NET *68 0.00626192

*CONN
*I *769:A I *C 20.445 42.485 *L 0.00172 *D CLKBUFX2
*I *792:Y O *C 65.105 29.145 *L 0 *D CLKBUFX2

*CAP
1 *769:A 3.68029e-05
2 *792:Y 3.68029e-05
3 *68:2 6.92715e-05
4 *68:3 6.92715e-05
5 *68:4 4.47362e-05
6 *68:5 4.38813e-05
7 *68:6 0.000206105
8 *68:7 0.000206951
9 *68:8 0.00010716
10 *68:9 0.00010716
11 *68:10 0.00056025
12 *68:11 0.000560019
13 *68:12 0.000265571
14 *68:13 0.000265571
15 *68:14 0.000201916
16 *68:15 0.000201916
17 *68:16 0.000269768
18 *68:17 0.000269939
19 *68:18 0.000229691
20 *68:19 0.000230606
21 *68:21 3.24515e-05
22 *68:22 0.000502716
23 *68:23 4.10944e-05
24 *68:24 0.000502716
25 *68:10 *20:13 0.00019529
26 *68:11 *20:12 0.00019529
27 *68:12 *20:15 3.182e-05
28 *68:13 *20:13 3.182e-05
29 *68:12 *20:13 9.73e-06
30 *68:13 *20:12 9.72998882e-06
31 *68:10 *285:23 0.000148
32 *68:11 *285:24 0.000147999994
33 *68:4 *359:13 3.534e-05
34 *68:5 *359:11 3.534e-05
35 *68:6 *359:13 0.00013375
36 *68:7 *359:11 0.00013375
37 *68:8 *359:13 3.6e-05
38 *68:9 *359:11 3.6e-05
39 *68:2 *359:3 9.87e-06
40 *68:3 *359:4 9.86999932e-06

*RES
1 *68:3 *792:Y 1.39996
2 *68:3 *68:2 0.372842
3 *68:4 *68:2 1.39996
4 *68:5 *68:4 0.372842
5 *68:8 *68:5 0.124312
6 *68:9 *68:8 0.994308
7 *68:9 *68:6 0.124312
8 *68:7 *68:6 2.36146
9 *68:22 *68:7 1.39996
10 *68:22 *68:24 4.97145
11 *68:23 *68:24 1.39996
12 *68:23 *68:14 0.124312
13 *68:15 *68:14 1.73999
14 *68:15 *68:16 0.124312
15 *68:17 *68:16 2.60999
16 *68:12 *68:17 0.124312
17 *68:13 *68:12 2.7343
18 *68:13 *68:10 0.124312
19 *68:11 *68:10 6.21428585
20 *68:11 *68:18 0.124312
21 *68:19 *68:18 2.11283
22 *68:21 *769:A 1.39996
23 *68:21 *68:19 1.39996
24 *68:20 *68:21 0.193059
*END

*D_NET *69 0.00236673

*CONN
*I *649:Y O *C 41.035 42.775 *L 0 *D CLKBUFX2
*I *739:B I *C 42.485 37.265 *L 0.00171 *D NOR2XL
*I *741:B I *C 39.585 37.265 *L 0.00167 *D NAND2XL
*I *728:B I *C 39.005 39.875 *L 0.0028 *D OR4X4
*I *719:C0 I *C 36.685 43.065 *L 0.00286 *D OAI211X1

*CAP
1 *649:Y 1.28212e-05
2 *739:B 3.68002e-05
3 *741:B 3.68002e-05
4 *728:B 3.68002e-05
5 *719:C0 3.68002e-05
6 *69:5 0.000157649
7 *69:6 0.000157649
8 *69:7 6.89689e-05
9 *69:8 6.89689e-05
10 *69:9 0.00017033
11 *69:10 0.00017033
12 *69:11 0.00015106
13 *69:12 0.00015106
14 *69:13 8.00695e-05
15 *69:14 0.000157961
16 *69:15 8.38304e-05
17 *69:16 8.31494e-05
18 *69:17 0.00014371
19 *69:18 0.000144391
20 *69:20 0.000125361
21 *69:21 5.91808e-05
22 *69:22 8.60994e-05
23 *69:23 7.43906e-05
24 *69:24 4.0101e-05
25 *69:25 3.24494e-05

*RES
1 *69:8 *739:B 1.39999998
2 *69:8 *69:7 0.248572
3 *69:9 *69:7 1.39999998
4 *69:21 *741:B 1.39999998
5 *69:10 *69:9 1.24286
6 *69:21 *69:22 0.248572
7 *69:22 *69:10 1.39999998
8 *69:22 *69:23 0.248572
9 *69:20 *69:23 0.248572
10 *69:14 *728:B 1.39999998
11 *69:20 *69:14 0.621429
12 *69:14 *69:13 0.372858
13 *69:11 *69:13 1.39999998
14 *69:12 *69:11 0.994287
15 *69:6 *69:12 1.39999998
16 *69:5 *719:C0 1.39999998
17 *69:6 *69:5 0.994287
18 *69:18 *69:5 1.39999998
19 *69:18 *69:17 1.36714
20 *69:16 *69:17 0.124286
21 *69:16 *69:15 0.372858
22 *69:24 *649:Y 0.193329
23 *69:25 *69:15 1.39999998
24 *69:25 *69:24 1.39999998
25 *69:19 *69:25 0.193051
*END

*D_NET *70 0.00112099

*CONN
*I *650:Y O *C 20.155 32.335 *L 0 *D CLKBUFX2
*I *715:AN I *C 25.665 32.045 *L 0.00174 *D NOR2BX1
*I *713:A0 I *C 27.985 32.335 *L 0.00158 *D AOI21XL
*I *714:A I *C 26.825 32.335 *L 0.00162 *D NOR2XL

*CAP
1 *650:Y 3.68013e-05
2 *715:AN 3.68013e-05
3 *713:A0 3.68013e-05
4 *714:A 3.68013e-05
5 *70:4 0.000130841
6 *70:5 9.81295e-05
7 *70:6 0.000202889
8 *70:7 0.000203800332
9 *70:12 3.24507e-05
10 *70:13 3.24507e-05
11 *70:14 6.49294e-05
12 *70:15 3.24507e-05
13 *70:16 7.54312e-05
14 *70:17 3.24507e-05
15 *70:18 6.79708e-05

*RES
1 *70:17 *713:A0 1.39999998
2 *70:11 *70:17 0.0299927
3 *70:15 *714:A 1.39999998
4 *70:10 *70:15 0.193051
5 *70:18 *70:17 1.39999998
6 *70:16 *70:15 1.39999998
7 *70:16 *70:18 0.497144
8 *70:13 *715:AN 1.39999998
9 *70:9 *70:13 0.193051
10 *70:14 *70:16 0.124286
11 *70:4 *70:13 1.39999998
12 *70:4 *70:14 0.497144
13 *70:5 *70:4 0.994287
14 *70:5 *70:6 0.124286
15 *70:7 *70:6 1.36714
16 *70:12 *70:7 1.39999998
17 *70:12 *650:Y 1.39999998
18 *70:8 *70:12 0.193051
*END

*D_NET *71 0.00196139

*CONN
*I *793:Y O *C 66.845 44.805 *L 0 *D CLKBUFX2
*I *902:A0 I *C 56.985 47.705 *L 0.00268 *D OA21X4
*I *905:A I *C 61.335 47.705 *L 0.00157 *D NAND2XL
*I *916:B I *C 65.105 44.515 *L 0.00158 *D NAND4XL

*CAP
1 *793:Y 3.68e-05
2 *902:A0 1.28194e-05
3 *905:A 3.68e-05
4 *916:B 3.68e-05
5 *71:4 0.000131502
6 *71:5 0.000131502
7 *71:6 6.62791e-05
8 *71:7 6.62791e-05
9 *71:8 0.00051258
10 *71:9 0.000326718
11 *71:10 4.27209e-05
12 *71:11 4.27209e-05
13 *71:12 4.35265e-05
14 *71:13 4.35265e-05
15 *71:15 4.01007e-05
16 *71:16 3.24513e-05
17 *71:17 6.92982e-05
18 *71:18 0.000218821
19 *71:19 7.01508e-05

*RES
1 *71:15 *902:A0 0.193347
2 *71:12 *71:15 1.4
3 *71:10 *905:A 1.4
4 *71:13 *71:12 0.248571
5 *71:11 *71:10 0.248571
6 *71:9 *71:13 1.4
7 *71:8 *71:11 1.4
8 *71:9 *71:8 1.98857141
9 *71:8 *71:18 1.74
10 *71:17 *71:18 0.124286
11 *71:17 *71:19 0.621429
12 *71:4 *71:19 1.4
13 *71:5 *71:4 0.87
14 *71:5 *793:Y 1.4
15 *71:6 *71:5 1.4
16 *71:7 *71:6 0.745714
17 *71:16 *916:B 1.4
18 *71:16 *71:7 1.4
19 *71:14 *71:16 0.193074
*END

*D_NET *72 0.00341212

*CONN
*I *651:Y O *C 52.345 37.555 *L 0 *D CLKBUFX2
*I *749:AN I *C 42.775 31.755 *L 0.00174 *D NAND2BX2
*I *744:B I *C 39.295 34.655 *L 0.00167 *D NAND2XL
*I *730:A I *C 37.845 31.755 *L 0.00156 *D NOR3XL
*I *729:A0 I *C 41.615 37.555 *L 0.00271 *D OAI21X1
*I *739:A I *C 42.195 37.555 *L 0.00162 *D NOR2XL

*CAP
1 *651:Y 2.5661e-05
2 *749:AN 3.68014e-05
3 *744:B 3.68014e-05
4 *730:A 3.68014e-05
5 *729:A0 3.68014e-05
6 *739:A 3.68014e-05
7 *72:6 6.21083e-05
8 *72:7 0.000167299
9 *72:8 0.000156259
10 *72:9 8.15319e-05
11 *72:10 6.427e-05
12 *72:11 0.00015505
13 *72:12 0.000112422
14 *72:13 0.00020531
15 *72:14 0.000188462
16 *72:15 0.00012708
17 *72:16 0.00012708
18 *72:17 0.00016854
19 *72:18 0.000184712
20 *72:19 8.40914e-05
21 *72:20 0.000198791
22 *72:21 0.00015292
23 *72:22 3.89003e-05
24 *72:23 0.000149151
25 *72:24 0.000149151
26 *72:25 5.44016e-05
27 *72:26 6.9411e-05
28 *72:31 3.24498e-05
29 *72:32 0.000158881
30 *72:33 0.000158881
31 *72:34 3.24498e-05
32 *72:35 4.44486e-05
33 *72:36 3.24498e-05
34 *72:37 4.59617e-05

*RES
1 *72:37 *651:Y 0.386671
2 *72:23 *72:37 1.39999
3 *72:24 *72:23 1.24285
4 *72:17 *72:24 1.39999
5 *72:18 *72:17 1.11857
6 *72:18 *72:13 0.24856
7 *72:25 *739:A 1.39999
8 *72:14 *72:13 1.61571431
9 *72:26 *72:25 0.372865
10 *72:35 *729:A0 1.39999
11 *72:15 *72:14 0.12428
12 *72:11 *72:26 0.24856
13 *72:11 *72:35 0.24856
14 *72:16 *72:15 1.24285
15 *72:12 *72:11 0.870009
16 *72:19 *72:16 0.12428
17 *72:34 *744:B 1.39999
18 *72:29 *72:34 0.0300037
19 *72:20 *72:12 1.39999
20 *72:20 *72:19 0.372865
21 *72:36 *749:AN 1.39999
22 *72:30 *72:36 0.0300037
23 *72:21 *72:34 1.39999
24 *72:21 *72:20 0.99429
25 *72:6 *72:36 1.39999
26 *72:28 *72:22 0.0643219
27 *72:22 *72:21 0.12428
28 *72:7 *72:6 0.372865
29 *72:33 *72:22 1.39999
30 *72:8 *72:7 0.870009
31 *72:32 *72:33 1.24285
32 *72:9 *72:8 0.372865
33 *72:9 *72:32 1.39999
34 *72:10 *72:9 0.497145
35 *72:31 *730:A 1.39999
36 *72:31 *72:10 1.39999
37 *72:27 *72:31 0.193064
*END

*D_NET *73 0.000793741

*CONN
*I *637:A I *C 33.205 58.145 *L 0.00172 *D CLKBUFX2
*I *652:Y O *C 30.015 55.245 *L 0 *D CLKBUFX2

*CAP
1 *637:A 3.67997e-05
2 *652:Y 3.67997e-05
3 *73:2 0.00010358
4 *73:3 0.00010358
5 *73:4 0.00018255
6 *73:5 7.39392e-05
7 *73:6 0.00018255
8 *73:7 7.39392e-05

*RES
1 *73:7 *637:A 1.39999998
2 *73:5 *73:7 0.745715
3 *73:6 *73:5 1.39999998
4 *73:4 *73:6 1.36714
5 *73:3 *73:4 1.39999998
6 *73:2 *73:3 0.497144
7 *652:Y *73:2 1.39999998
*END

*D_NET *74 0.000770071

*CONN
*I *653:Y O *C 48.285 29.145 *L 0 *D CLKBUFX2
*I *677:D I *C 50.315 26.535 *L 0.0016 *D DFFQX1

*CAP
1 *653:Y 3.68005e-05
2 *677:D 3.68005e-05
3 *74:2 0.00021215
4 *74:3 0.00021215
5 *74:5 0.000119861
6 *74:6 3.24497e-05
7 *74:7 0.000119861

*RES
1 *74:2 *653:Y 1.39999998
2 *74:3 *74:2 1.11857
3 *74:5 *74:3 1.39999998
4 *74:5 *74:7 0.870001
5 *74:6 *677:D 1.39999998
6 *74:6 *74:7 1.39999998
7 *74:4 *74:6 0.193051
*END

*D_NET *75 0.00129286

*CONN
*I *638:A I *C 33.785 60.755 *L 0.00172 *D CLKBUFX2
*I *654:Y O *C 43.645 63.655 *L 0 *D CLKBUFX2

*CAP
1 *638:A 3.68023e-05
2 *654:Y 3.68023e-05
3 *75:2 5.36511e-05
4 *75:3 5.36511e-05
5 *75:4 6.80504e-05
6 *75:5 6.80504e-05
7 *75:6 0.00048793
8 *75:7 0.00048793

*RES
1 *75:2 *654:Y 1.39997
2 *75:3 *75:2 0.497135
3 *75:6 *75:3 1.39997
4 *75:7 *75:6 4.22571421
5 *75:4 *75:7 1.39997
6 *75:5 *75:4 0.745703
7 *638:A *75:5 1.39997
*END

*D_NET *76 0.00206132

*CONN
*I *794:Y O *C 76.705 63.655 *L 0 *D CLKBUFX2
*I *932:A I *C 68.295 53.505 *L 0.00152 *D NAND4XL
*I *938:A I *C 71.195 58.435 *L 0.00273 *D CLKINVX1

*CAP
1 *794:Y 3.67979e-05
2 *932:A 6.574e-05
3 *938:A 3.67979e-05
4 *76:3 9.26205e-05
5 *76:4 9.26205e-05
6 *76:5 0.000158199
7 *76:6 9.67309e-05
8 *76:7 0.000277988867
9 *76:8 0.000231702
10 *76:9 0.000140222
11 *76:10 0.0002156
12 *76:11 0.0002156
13 *76:12 8.60414e-05
14 *76:9 *83:8 2.121e-05
15 *76:7 *83:9 2.121e-05
16 *76:5 *83:10 1.256e-05
17 *76:6 *83:6 1.256e-05
18 *76:5 *83:6 8.587e-05
19 *76:6 *83:7 8.587e-05
20 *76:5 *83:7 3.769e-05
21 *76:6 *83:22 3.76899996e-05

*RES
1 *76:3 *794:Y 1.40001
2 *76:4 *76:3 0.745729
3 *76:10 *76:4 1.40001
4 *76:11 *76:10 2.3614285
5 *76:9 *76:11 1.40001
6 *76:7 *938:A 1.40001
7 *76:7 *76:9 1.49142
8 *76:8 *76:7 0.870006
9 *76:5 *76:8 0.621417
10 *76:6 *76:5 1.36715
11 *76:12 *76:6 1.40001
12 *932:A *76:12 0.966681
*END

*D_NET *77 0.00110343

*CONN
*I *556:Y O *C 26.535 53.215 *L 0 *D CLKBUFX2
*I *620:A I *C 23.055 58.145 *L 0.0017 *D MXI2XL

*CAP
1 *556:Y 1.28208e-05
2 *620:A 3.68006e-05
3 *77:2 0.00017488
4 *77:3 0.00017488
5 *77:4 8.61207e-05
6 *77:5 8.61207e-05
7 *77:6 0.00022572
8 *77:7 0.000226900469
9 *77:8 4.01001e-05
10 *77:9 3.90891e-05

*RES
1 *77:8 *556:Y 0.193324
2 *77:9 *77:8 1.39999
3 *77:6 *77:9 0.124278
4 *77:6 *77:7 1.49142861
5 *77:2 *77:7 1.39999
6 *77:5 *620:A 1.39999
7 *77:3 *77:2 1.24285
8 *77:4 *77:5 0.621436
9 *77:4 *77:3 1.39999
*END

*D_NET *78 0.00676207

*CONN
*I *636:A I *C 16.095 39.875 *L 0.00172 *D CLKBUFX2
*I *655:Y O *C 67.715 21.895 *L 0 *D CLKBUFX2

*CAP
1 *636:A 3.6786e-05
2 *655:Y 1.28163e-05
3 *78:2 5.3559e-05
4 *78:3 5.3559e-05
5 *78:4 0.000161767
6 *78:5 0.000161767
7 *78:6 0.000241417
8 *78:7 0.000240557
9 *78:8 8.34351e-05
10 *78:9 8.43239e-05
11 *78:10 5.99528e-05
12 *78:11 5.9064e-05
13 *78:12 0.000531777
14 *78:13 0.000531777
15 *78:14 0.000275221
16 *78:15 0.00027611
17 *78:19 3.24565e-05
18 *78:20 3.38041e-05
19 *78:21 3.38041e-05
20 *78:22 0.00187901
21 *78:23 0.00187901
22 *78:24 4.01119e-05

*RES
1 *78:24 *655:Y 0.193419
2 *78:2 *78:24 1.40008
3 *78:3 *78:2 0.248681
4 *78:6 *78:3 1.40008
5 *78:7 *78:6 1.24282
6 *78:7 *78:4 0.124341
7 *78:5 *78:4 1.11848
8 *78:8 *78:5 0.124341
9 *78:9 *78:8 0.372728
10 *78:15 *78:9 1.40008
11 *78:15 *78:14 2.48564
12 *78:13 *78:14 0.124341
13 *78:13 *78:12 5.09562
14 *78:12 *78:11 0.124341
15 *78:11 *78:10 0.372728
16 *78:23 *78:10 1.40008
17 *78:22 *78:23 19.264286
18 *78:18 *78:21 0.193125
19 *78:21 *78:22 1.40008
20 *78:17 *78:20 0.193125
21 *78:20 *78:21 1.40008
22 *78:19 *636:A 1.40008
23 *78:19 *78:20 1.40008
24 *78:16 *78:19 0.193125
*END

*D_NET *79 0.0013777

*CONN
*I *541:A I *C 18.995 53.215 *L 0.00273 *D INVX1
*I *567:A I *C 20.445 52.925 *L 0.00184 *D DLY1X4
*I *557:Y O *C 15.515 60.465 *L 0 *D CLKBUFX2

*CAP
1 *541:A 3.67959e-05
2 *567:A 3.67959e-05
3 *557:Y 3.67959e-05
4 *79:3 0.00011712
5 *79:4 5.57896e-05
6 *79:6 3.24526e-05
7 *79:7 0.000162769
8 *79:8 4.22235e-05
9 *79:9 0.00039045
10 *79:10 0.000303727
11 *79:11 0.000162769

*RES
1 *79:4 *567:A 1.40002
2 *79:8 *541:A 1.40002
3 *79:4 *79:3 0.37285
4 *79:8 *79:9 0.248581
5 *79:9 *79:3 0.621431
6 *79:9 *79:10 2.85857153
7 *79:11 *79:10 1.40002
8 *79:7 *79:11 1.49144
9 *79:6 *79:7 1.40002
10 *79:6 *557:Y 1.40002
11 *79:5 *79:6 0.193055
*END

*D_NET *80 0.0068065

*CONN
*I *795:Y O *C 26.535 16.095 *L 0 *D DLY1X1
*I *889:A I *C 62.495 45.095 *L 0.00157 *D NAND2XL
*I *916:A I *C 64.815 44.515 *L 0.00152 *D NAND4XL
*I *888:A0 I *C 61.045 44.805 *L 0.00271 *D OAI21X1

*CAP
1 *795:Y 3.68055e-05
2 *889:A 3.68055e-05
3 *916:A 3.68055e-05
4 *888:A0 1.28224e-05
5 *80:4 0.000111396
6 *80:5 6.01063e-05
7 *80:6 5.23393e-05
8 *80:7 5.32315e-05
9 *80:8 0.00114169
10 *80:9 0.00114078
11 *80:10 8.51039e-05
12 *80:11 8.51039e-05
13 *80:12 0.000130603
14 *80:13 0.00114641
15 *80:14 0.00114641
16 *80:17 3.24497e-05
17 *80:18 6.20305e-05
18 *80:19 7.64798e-05
19 *80:20 8.05032e-05
20 *80:21 3.24497e-05
21 *80:13 *360:18 0.00014502
22 *80:14 *360:17 0.000145019993
23 *80:6 *67:8 2.432e-05
24 *80:7 *67:9 2.432e-05
25 *80:8 *67:6 2.513e-05
26 *80:9 *67:7 2.513e-05
27 *80:8 *67:8 0.00016467
28 *80:9 *67:9 0.000164670003
29 *80:6 *28:2 1.427e-05
30 *80:7 *28:3 1.427e-05
31 *80:8 *28:2 0.00024971
32 *80:9 *28:3 0.000249710008

*RES
1 *888:A0 *80:18 0.193406
2 *80:18 *80:19 0.579991
3 *80:20 *80:19 1.4001
4 *80:20 *80:12 0.497167
5 *80:4 *889:A 1.4001
6 *80:4 *80:12 0.372819
7 *80:21 *916:A 1.4001
8 *80:16 *80:21 0.192954
9 *80:5 *80:4 0.248471
10 *80:10 *80:21 1.4001
11 *80:11 *80:5 1.4001
12 *80:11 *80:10 0.994335
13 *80:13 *80:11 1.4001
14 *80:14 *80:13 12.4285
15 *80:8 *80:14 1.4001
16 *80:9 *80:8 14.79
17 *80:9 *80:6 0.124348
18 *80:7 *80:6 0.621516
19 *80:17 *80:7 1.4001
20 *80:17 *795:Y 1.4001
21 *80:15 *80:17 0.192954
*END

*D_NET *81 0.00308932

*CONN
*I *656:Y O *C 17.835 16.095 *L 0 *D DLY1X1
*I *703:B0 I *C 18.125 34.655 *L 0.00169 *D OAI21XL
*I *746:A I *C 22.185 39.585 *L 0.00273 *D CLKINVX1
*I *705:A I *C 20.735 39.875 *L 0.00155 *D NAND3XL
*I *738:A I *C 20.735 37.555 *L 0.00264 *D NAND3X1
*I *696:A1 I *C 18.705 32.045 *L 0.00271 *D OAI32X1

*CAP
1 *656:Y 3.67981e-05
2 *703:B0 3.67981e-05
3 *746:A 3.8482e-05
4 *705:A 5.29398e-05
5 *738:A 8.83483e-05
6 *696:A1 3.67981e-05
7 *81:6 0.000223091
8 *81:7 0.00010449
9 *81:8 0.0001337
10 *81:9 0.000149331
11 *81:10 8.22795e-05
12 *81:11 8.22795e-05
13 *81:12 4.41785e-05
14 *81:13 0.000192838
15 *81:14 0.00028368
16 *81:15 0.00028368
17 *81:16 0.000172268
18 *81:17 0.0001867
19 *81:18 5.46972e-05
20 *81:19 0.000131601
21 *81:20 0.000131601
22 *81:21 5.73983e-05
23 *81:22 8.13705e-05
24 *81:23 5.86017e-05
25 *81:24 0.000124211
26 *81:25 0.000124211
27 *81:26 5.4879e-05
28 *81:27 4.20575e-05

*RES
1 *81:26 *746:A 0.58001
2 *81:26 *81:27 0.193324
3 *705:A *81:27 0.386648
4 *81:25 *705:A 1.4
5 *81:24 *81:25 0.994271
6 *738:A *81:24 1.4
7 *81:22 *738:A 0.966658
8 *81:23 *81:22 1.4
9 *81:21 *81:23 0.248587
10 *81:20 *81:21 0.124293
11 *81:19 *81:20 0.745722
12 *81:18 *703:B0 1.4
13 *81:12 *81:19 0.124293
14 *81:18 *81:13 0.248587
15 *81:13 *81:12 0.248587
16 *81:6 *696:A1 1.4
17 *81:6 *81:13 1.24286
18 *81:7 *81:6 0.870015
19 *81:8 *81:7 0.124293
20 *81:9 *81:8 0.994271
21 *81:10 *81:9 0.248587
22 *81:11 *81:10 0.745722
23 *81:16 *656:Y 1.4
24 *81:15 *81:11 0.248587
25 *81:16 *81:17 1.36715
26 *81:14 *81:15 2.4857142
27 *81:14 *81:17 0.248587
*END

*D_NET *82 0.00421566

*CONN
*I *550:A I *C 30.885 53.215 *L 0.00273 *D INVX1
*I *615:A I *C 27.985 52.925 *L 0.0017 *D MXI2XL
*I *558:Y O *C 18.705 23.635 *L 0 *D DLY1X4

*CAP
1 *550:A 3.99213e-05
2 *615:A 3.68009e-05
3 *558:Y 3.68009e-05
4 *82:3 9.57914e-05
5 *82:4 4.75118e-05
6 *82:5 0.000261643
7 *82:6 0.000309923
8 *82:7 9.06402e-05
9 *82:8 9.00582e-05
10 *82:9 3.32347e-05
11 *82:10 3.90298e-05
12 *82:11 3.90298e-05
13 *82:12 5.41984e-05
14 *82:13 5.41984e-05
15 *82:14 0.000254337
16 *82:15 0.000253458
17 *82:19 3.24546e-05
18 *82:20 0.00081149
19 *82:21 0.000810611
20 *82:22 6.72001e-05
21 *82:14 2.704e-05
22 *82:15 2.704e-05
23 *82:21 0.00019108
24 *82:20 0.00019108
25 *82:12 9.87e-06
26 *82:13 9.86998933e-06
27 *82:5 *22:22 0.00010383
28 *82:6 *22:17 0.00010383
29 *82:6 *22:22 3.225e-05
30 *82:3 *22:17 3.225e-05
31 *82:3 *22:22 1.459e-05
32 *82:4 *22:17 1.45899966e-05

*RES
1 *82:22 *550:A 0.580006
2 *82:10 *615:A 1.39994
3 *82:17 *82:10 0.182833
4 *82:12 *82:22 1.39994
5 *82:11 *82:10 0.124255
6 *82:13 *82:12 0.248511
7 *82:9 *82:11 1.39994
8 *82:7 *82:13 1.39994
9 *82:9 *82:8 0.124255
10 *82:18 *82:8 0.182833
11 *82:8 *82:7 0.74568
12 *82:14 *82:8 1.39994
13 *82:15 *82:14 2.4857
14 *82:21 *82:15 0.124255
15 *82:20 *82:21 9.69428539
16 *82:5 *82:20 1.39994
17 *82:6 *82:5 2.73436
18 *82:3 *82:6 0.869936
19 *82:4 *82:3 0.372914
20 *82:19 *82:4 1.39994
21 *82:19 *558:Y 1.39994
22 *82:16 *82:19 0.19304
*END

*D_NET *83 0.00471579

*CONN
*I *763:A I *C 69.745 63.365 *L 0.00184 *D DLY1X4
*I *796:Y O *C 51.475 73.515 *L 0 *D DLY1X1
*I *932:D I *C 67.425 53.215 *L 0.00166 *D NAND4XL

*CAP
1 *763:A 3.67985e-05
2 *796:Y 3.67985e-05
3 *932:D 3.67985e-05
4 *83:3 7.91463e-05
5 *83:4 0.000109414
6 *83:5 7.19108e-05
7 *83:6 0.000160002
8 *83:7 9.22607e-05
9 *83:8 0.000135582
10 *83:9 0.000134409
11 *83:10 0.000140848
12 *83:11 0.00050231
13 *83:12 0.00050231
14 *83:13 0.000370698
15 *83:14 0.000371871
16 *83:16 5.6129e-05
17 *83:17 4.09605e-05
18 *83:18 5.66196e-05
19 *83:19 3.24449e-05
20 *83:20 0.000106747
21 *83:21 5.4757e-05
22 *83:22 4.2961e-05
23 *83:23 0.000106747
24 *83:11 *125:259 0.00010228
25 *83:12 *125:260 0.00010228
26 *83:11 *125:260 5.227e-05
27 *83:12 *125:261 5.22700031e-05
28 *83:11 *479:97 1.25e-05
29 *83:12 *479:98 1.25e-05
30 *83:11 *479:98 3.727e-05
31 *83:12 *479:99 3.727e-05
32 *83:11 *479:109 3.611e-05
33 *83:12 *479:110 3.611e-05
34 *83:11 *479:110 3.751e-05
35 *83:12 *479:111 3.751e-05
36 *83:11 *479:112 3.751e-05
37 *83:12 *479:104 3.751e-05
38 *83:11 *479:104 0.00014751
39 *83:12 *479:105 0.00014751
40 *83:11 *479:100 3.838e-05
41 *83:12 *479:101 3.838e-05
42 *83:11 *479:102 4.108e-05
43 *83:12 *479:103 4.108e-05
44 *83:10 *479:107 1.888e-05
45 *83:6 *479:108 1.8880007e-05
46 *83:8 *76:9 2.121e-05
47 *83:9 *76:7 2.121e-05
48 *83:10 *76:5 1.256e-05
49 *83:6 *76:6 1.256e-05
50 *83:6 *76:5 8.587e-05
51 *83:7 *76:6 8.587e-05
52 *83:7 *76:5 3.769e-05
53 *83:22 *76:6 3.76899996e-05

*RES
1 *83:3 *796:Y 1.39997
2 *83:4 *83:3 0.621453
3 *83:5 *83:4 0.86997
4 *83:16 *83:5 0.248625
5 *83:16 *83:18 0.248625
6 *83:17 *83:18 0.372829
7 *83:17 *83:13 0.124312
8 *83:14 *83:13 3.72861
9 *83:12 *83:14 1.39997
10 *83:12 *83:11 7.08428574
11 *83:8 *763:A 1.39997
12 *83:21 *83:11 1.39997
13 *83:9 *83:8 1.61574
14 *83:21 *83:10 0.248625
15 *83:10 *83:9 0.124312
16 *83:6 *83:10 1.49142
17 *83:7 *83:6 0.86997
18 *83:22 *83:7 0.372829
19 *83:23 *83:22 1.39997
20 *83:20 *83:23 0.86997
21 *83:19 *932:D 1.39997
22 *83:19 *83:20 1.39997
23 *83:15 *83:19 0.0300511
*END

*D_NET *84 0.000312711

*CONN
*I *793:A I *C 67.425 45.095 *L 0.00172 *D CLKBUFX2
*I *797:Y O *C 68.005 42.195 *L 0 *D DLY1X1

*CAP
1 *793:A 3.68006e-05
2 *797:Y 3.68006e-05
3 *84:2 9.942e-05
4 *84:3 8.44103e-05
5 *84:4 5.52799e-05

*RES
1 *84:3 *793:A 1.39999998
2 *84:4 *797:Y 1.39999998
3 *84:2 *84:3 0.994287
4 *84:2 *84:4 0.248572
*END

*D_NET *85 0.00745649

*CONN
*I *767:A I *C 16.965 65.975 *L 0.00172 *D CLKBUFX2
*I *798:Y O *C 65.105 39.295 *L 0 *D DLY1X4

*CAP
1 *767:A 3.67988e-05
2 *798:Y 3.67988e-05
3 *85:2 0.000436727773
4 *85:3 0.0004223
5 *85:4 0.00027975
6 *85:5 0.00027975
7 *85:6 0.000229176
8 *85:7 0.000229176
9 *85:8 5.71775e-05
10 *85:9 5.71775e-05
11 *85:10 8.2934e-05
12 *85:11 8.37803e-05
13 *85:12 5.53648e-05
14 *85:13 5.45118e-05
15 *85:14 0.000434669
16 *85:15 0.000433989
17 *85:16 0.000163342
18 *85:17 0.000163342
19 *85:18 6.12025e-05
20 *85:19 6.21088e-05
21 *85:20 0.000320507
22 *85:21 0.000320507
23 *85:22 0.000105425
24 *85:23 0.000122278
25 *85:24 0.000326071
26 *85:25 0.000361151
27 *85:26 0.000376145
28 *85:27 0.000323986
29 *85:28 0.000263276
30 *85:29 0.00027891
31 *85:30 0.0001005
32 *85:31 0.0001005
33 *85:32 0.000135673
34 *85:33 0.000135673
35 *85:34 5.87368e-05
36 *85:35 5.7544e-05
37 *85:37 0.000188532
38 *85:38 0.000188532
39 *85:39 3.24539e-05

*RES
1 *85:34 *767:A 1.39997
2 *85:35 *85:34 0.372884
3 *85:35 *85:32 0.124316
4 *85:33 *85:32 1.36715
5 *85:33 *85:30 0.124316
6 *85:31 *85:30 1.11859
7 *85:31 *85:28 0.124316
8 *85:29 *85:28 2.36142
9 *85:2 *85:29 0.248568
10 *85:3 *85:2 4.22571421
11 *85:19 *85:3 1.39997
12 *85:19 *85:18 0.372884
13 *85:18 *85:17 0.124316
14 *85:17 *85:16 1.24284
15 *85:27 *85:16 0.124316
16 *85:27 *85:26 3.3557
17 *85:26 *85:25 0.870019
18 *85:25 *85:24 2.98288
19 *85:24 *85:21 0.248568
20 *85:21 *85:20 2.60999
21 *85:23 *85:20 0.248568
22 *85:23 *85:22 0.994271
23 *85:15 *85:22 0.124316
24 *85:15 *85:14 2.36142
25 *85:38 *85:14 1.39997
26 *85:37 *85:38 1.61572
27 *85:11 *85:37 1.39997
28 *85:11 *85:10 0.372884
29 *85:7 *85:10 0.124316
30 *85:7 *85:6 1.86429
31 *85:6 *85:9 0.124316
32 *85:9 *85:8 0.621451
33 *85:5 *85:8 0.124316
34 *85:5 *85:4 2.48574
35 *85:4 *85:13 0.124316
36 *85:13 *85:12 0.372884
37 *85:39 *85:12 1.39997
38 *85:39 *798:Y 1.39997
39 *85:36 *85:39 0.193051
*END

*D_NET *86 0.0017312

*CONN
*I *556:A I *C 27.115 52.925 *L 0.00172 *D CLKBUFX2
*I *508:A0 I *C 23.87 50.0125 *L 0.00263 *D AOI211X1
*I *524:A0 I *C 22.185 50.315 *L 0.00264 *D OAI22X1
*I *559:Y O *C 17.835 52.635 *L 0 *D DLY1X1

*CAP
1 *556:A 3.67999e-05
2 *508:A0 3.84792e-05
3 *524:A0 3.67999e-05
4 *559:Y 3.67999e-05
5 *86:4 0.000132389
6 *86:5 4.25697e-05
7 *86:6 7.35496e-05
8 *86:7 4.34898e-05
9 *86:8 0.000137050615
10 *86:9 0.000137050615
11 *86:10 6.123e-05
12 *86:11 9.01291e-05
13 *86:12 6.09497e-05
14 *86:13 8.43195e-05
15 *86:14 8.34412e-05
16 *86:16 3.24501e-05
17 *86:17 5.53598e-05
18 *86:18 5.44794e-05
19 *86:19 7.65902e-05
20 *86:20 5.8779e-05
21 *86:21 0.000115799
22 *86:22 0.000115799
23 *86:23 4.4479e-05
24 *86:24 4.331e-05
25 *86:25 3.91003e-05

*RES
1 *86:25 *556:A 1.39999998
2 *86:24 *86:25 0.124286
3 *86:23 *86:24 0.248572
4 *86:20 *508:A0 0.580008
5 *86:13 *86:23 1.39999998
6 *86:7 *86:20 1.39999998
7 *86:14 *86:13 0.372858
8 *86:5 *524:A0 1.39999998
9 *86:7 *86:6 0.372858
10 *86:14 *86:22 0.124286
11 *86:5 *86:4 0.248572
12 *86:4 *86:6 0.372858
13 *86:21 *86:22 1.24286
14 *86:4 *86:19 0.621429
15 *86:10 *86:21 0.124286
16 *86:11 *86:19 1.39999998
17 *86:11 *86:10 0.372858
18 *86:12 *86:11 0.372858
19 *86:12 *86:8 0.124286
20 *86:9 *86:8 1.11857
21 *86:18 *86:9 0.124286
22 *86:17 *86:18 0.372858
23 *86:16 *86:17 1.39999998
24 *86:16 *559:Y 1.39999998
25 *86:15 *86:16 0.193051
*END

*D_NET *87 0.00168731

*CONN
*I *761:A I *C 62.205 50.025 *L 0.00155 *D DLY2X1
*I *799:Y O *C 54.375 47.415 *L 0 *D DLY1X1

*CAP
1 *761:A 3.67978e-05
2 *799:Y 1.28219e-05
3 *87:2 0.00011798
4 *87:3 0.00011798
5 *87:5 4.56188e-05
6 *87:6 6.00796e-05
7 *87:7 0.00063179
8 *87:8 3.24499e-05
9 *87:9 0.00063179

*RES
1 *799:Y *87:5 0.193335
2 *87:5 *87:6 0.386671
3 *87:3 *87:6 1.39999
4 *87:3 *87:2 0.621425
5 *87:7 *87:2 1.39999
6 *87:7 *87:9 3.23142862
7 *87:8 *761:A 1.39999
8 *87:8 *87:9 1.39999
9 *87:4 *87:8 0.19304
*END

*D_NET *88 0.00250983

*CONN
*I *657:Y O *C 65.105 18.415 *L 0 *D DLY1X4
*I *737:B I *C 53.505 26.825 *L 0.00233 *D XNOR2XL
*I *742:B I *C 52.345 21.605 *L 0.00167 *D NAND2XL

*CAP
1 *657:Y 3.68009e-05
2 *737:B 3.68009e-05
3 *742:B 3.68009e-05
4 *88:3 4.07076e-05
5 *88:4 4.07076e-05
6 *88:5 8.43221e-05
7 *88:6 8.34419e-05
8 *88:7 0.000143389
9 *88:8 0.000143389
10 *88:9 0.00022272
11 *88:10 0.0002236
12 *88:11 7.74676e-05
13 *88:12 0.000194019
14 *88:13 0.000195861
15 *88:14 8.71199e-05
16 *88:9 *107:8 0.00012891
17 *88:10 *107:9 0.000128909996
18 *88:9 *161:5 5.787e-05
19 *88:10 *161:6 5.787e-05
20 *88:9 *161:6 2.738e-05
21 *88:10 *161:7 2.738e-05
22 *88:9 *161:8 3.139e-05
23 *88:10 *161:9 3.139e-05
24 *88:7 *161:8 2.829e-05
25 *88:8 *161:9 2.82900077e-05
26 *88:13 *112:9 5.595e-05
27 *88:12 *112:10 5.595e-05
28 *88:12 *112:10 2.759e-05
29 *88:11 *112:11 2.759e-05
30 *88:13 *112:12 7.396e-05
31 *88:12 *112:13 7.39599989e-05

*RES
1 *88:4 *657:Y 1.39998
2 *88:4 *88:3 0.37288
3 *88:5 *88:3 1.39998
4 *88:6 *88:5 0.37288
5 *88:7 *88:6 0.124312
6 *88:14 *737:B 1.39998
7 *88:8 *88:7 1.36715
8 *88:13 *88:14 0.497135
9 *88:8 *88:9 0.124312
10 *88:12 *742:B 1.39998
11 *88:12 *88:13 2.23717
12 *88:10 *88:9 3.72857141
13 *88:11 *88:12 0.745703
14 *88:11 *88:10 1.39998
*END

*D_NET *89 0.00225419

*CONN
*I *658:Y O *C 47.125 39.295 *L 0 *D DLY1X4
*I *734:A I *C 46.255 23.925 *L 0.00162 *D NOR2XL
*I *732:A0 I *C 47.415 23.925 *L 0.00158 *D AOI21XL
*I *733:B I *C 46.545 29.145 *L 0.00284 *D NAND2BX1

*CAP
1 *658:Y 3.67996e-05
2 *734:A 3.67996e-05
3 *732:A0 3.67996e-05
4 *733:B 3.67996e-05
5 *89:4 8.80217e-05
6 *89:5 5.84599e-05
7 *89:6 4.73899e-05
8 *89:7 0.000189332
9 *89:8 0.000306828
10 *89:9 0.000147848
11 *89:10 8.74597e-05
12 *89:11 8.74597e-05
13 *89:12 0.00031658
14 *89:13 0.00031749127
15 *89:14 8.39425e-05
16 *89:15 3.8253e-05
17 *89:13 *46:2 0.00013498
18 *89:12 *46:3 0.00013498
19 *89:13 *46:4 3.398e-05
20 *89:12 *46:5 3.39800001e-05

*RES
1 *89:13 *658:Y 1.39999
2 *89:12 *89:13 2.98285723
3 *89:11 *89:12 0.124301
4 *89:10 *89:11 0.621413
5 *89:9 *89:10 0.124301
6 *89:8 *733:B 1.39999
7 *89:8 *89:9 0.994271
8 *89:7 *89:8 1.73998
9 *89:15 *732:A0 1.39999
10 *89:6 *89:7 0.124301
11 *89:14 *89:15 0.248556
12 *89:5 *734:A 1.39999
13 *89:5 *89:6 0.497158
14 *89:4 *89:14 0.497158
15 *89:4 *89:5 0.248556
*END

*D_NET *90 0.00320786

*CONN
*I *659:Y O *C 51.765 31.755 *L 0 *D DLY1X1
*I *729:A1 I *C 41.325 37.265 *L 0.00274 *D OAI21X1
*I *736:B I *C 40.455 32.335 *L 0.00284 *D NAND2BX1
*I *748:A I *C 49.735 29.145 *L 0.00273 *D INVX1
*I *720:B1 I *C 47.415 32.045 *L 0.00282 *D OAI32X1

*CAP
1 *659:Y 3.68021e-05
2 *729:A1 3.68021e-05
3 *736:B 3.68021e-05
4 *748:A 3.68021e-05
5 *720:B1 3.68021e-05
6 *90:5 0.000182481
7 *90:6 0.000182481
8 *90:7 0.000121183
9 *90:8 0.000121183
10 *90:9 8.52588e-05
11 *90:10 7.02506e-05
12 *90:11 0.000195812
13 *90:12 0.000218631
14 *90:13 5.29282e-05
15 *90:14 5.29282e-05
16 *90:15 0.00032132
17 *90:16 0.000256227
18 *90:17 0.000184241
19 *90:18 0.000128082
20 *90:19 0.000128989
21 *90:20 3.93615e-05
22 *90:21 0.000119149
23 *90:15 *174:15 0.00026823
24 *90:16 *174:16 0.00026823
25 *90:17 *174:26 4.86e-06
26 *90:15 *174:25 4.86e-06
27 *90:13 *174:13 8.59e-06
28 *90:14 *174:14 8.58997794e-06

*RES
1 *90:20 *748:A 1.40002
2 *90:8 *90:20 0.12429
3 *90:8 *90:7 0.994274
4 *90:14 *659:Y 1.40002
5 *90:18 *90:7 0.12429
6 *90:14 *90:13 0.621448
7 *90:6 *720:B1 1.40002
8 *90:18 *90:19 0.994274
9 *90:21 *90:13 1.40002
10 *90:6 *90:5 0.869985
11 *90:17 *90:19 1.40002
12 *90:17 *90:21 1.11856
13 *90:15 *90:5 1.40002
14 *90:15 *90:17 0.745695
15 *90:11 *729:A1 1.40002
16 *90:16 *90:15 2.73428583
17 *90:12 *90:11 1.49143
18 *90:12 *90:16 1.40002
19 *90:9 *90:12 0.248579
20 *90:10 *90:9 0.621448
21 *736:B *90:10 1.40002
*END

*D_NET *91 0.000643183

*CONN
*I *649:A I *C 41.615 42.485 *L 0.00172 *D CLKBUFX2
*I *660:Y O *C 38.425 42.775 *L 0 *D CLKBUFX2

*CAP
1 *649:A 3.68009e-05
2 *660:Y 3.68009e-05
3 *91:2 0.00016971
4 *91:3 0.00016971
5 *91:4 5.20719e-05
6 *91:5 5.20719e-05
7 *91:6 6.30104e-05
8 *91:7 6.30104e-05

*RES
1 *91:6 *649:A 1.39999998
2 *91:6 *91:7 0.497144
3 *91:2 *91:7 1.39999998
4 *91:3 *91:2 1.36714
5 *91:5 *91:3 1.39999998
6 *91:4 *91:5 0.372858
7 *660:Y *91:4 1.39999998
*END

*D_NET *92 0.00263221

*CONN
*I *661:Y O *C 17.835 50.605 *L 0 *D DLY1X1
*I *702:A I *C 17.835 39.875 *L 0.00157 *D NAND2XL
*I *738:B I *C 21.025 37.845 *L 0.00285 *D NAND3X1
*I *710:A1 I *C 20.445 34.655 *L 0.00274 *D OAI21X1
*I *699:A1 I *C 18.705 42.485 *L 0.00271 *D OAI32X1

*CAP
1 *661:Y 3.68015e-05
2 *702:A 3.55994e-05
3 *738:B 3.68015e-05
4 *710:A1 3.68015e-05
5 *699:A1 3.68015e-05
6 *92:5 0.000199182
7 *92:6 0.00013294
8 *92:7 9.3919e-05
9 *92:8 5.5899e-05
10 *92:9 9.16206e-05
11 *92:10 9.16206e-05
12 *92:11 0.00011799
13 *92:12 9.06497e-05
14 *92:13 0.000158959
15 *92:14 5.86003e-05
16 *92:16 0.000103981
17 *92:17 5.82899e-05
18 *92:18 0.000104051
19 *92:19 0.00016953
20 *92:20 0.00021642
21 *92:21 0.00013819
22 *92:22 0.000104051
23 *92:23 3.90702e-05
24 *92:24 3.24523e-05
25 *92:25 0.00013819
26 *92:5 *326:3 0.00010004
27 *92:6 *326:4 0.00010004
28 *92:6 *326:3 1.222e-05
29 *92:7 *326:4 1.222e-05
30 *92:6 *326:8 4.94e-06
31 *92:7 *326:7 4.94e-06
32 *92:8 *705:Y 9.7e-06
33 *702:A *326:9 9.69999849e-06

*RES
1 *92:17 *661:Y 1.39999
2 *92:16 *92:17 0.372865
3 *92:16 *92:20 0.497145
4 *92:19 *92:20 1.61571431
5 *92:13 *92:19 0.12428
6 *702:A *92:8 0.580006
7 *92:5 *699:A1 1.39999
8 *92:5 *92:13 1.36715
9 *92:6 *92:8 1.39999
10 *92:6 *92:5 0.99429
11 *92:23 *710:A1 1.39999
12 *92:7 *92:6 0.745705
13 *92:10 *92:23 0.12428
14 *92:18 *92:7 1.39999
15 *92:10 *92:9 0.870009
16 *92:18 *92:22 0.497145
17 *92:12 *92:9 0.12428
18 *92:14 *92:22 1.39999
19 *92:12 *92:11 0.372865
20 *92:11 *92:14 0.24856
21 *92:21 *92:11 1.39999
22 *92:21 *92:25 0.497145
23 *92:24 *738:B 1.39999
24 *92:24 *92:25 1.39999
25 *92:15 *92:24 0.193064
*END

*D_NET *93 0.00395409

*CONN
*I *662:Y O *C 60.755 74.385 *L 0 *D DLY1X4
*I *706:A I *C 36.685 63.365 *L 0.00157 *D NAND2XL
*I *704:A I *C 34.365 63.4125 *L 0.00156 *D XNOR2XL

*CAP
1 *662:Y 3.68015e-05
2 *706:A 3.68015e-05
3 *704:A 3.68015e-05
4 *93:3 0.000238431
5 *93:4 0.00020828
6 *93:5 2.92347e-05
7 *93:6 2.92347e-05
8 *93:7 9.77982e-05
9 *93:8 0.000234101
10 *93:9 0.000169228
11 *93:10 0.000251561
12 *93:11 0.000251561
13 *93:12 0.000488344
14 *93:13 0.00050498
15 *93:14 0.000115698
16 *93:15 0.00011482
17 *93:18 2.95429e-05
18 *93:19 2.95429e-05
19 *93:20 0.000150365
20 *93:21 0.000167001
21 *93:22 0.000186789
22 *93:23 0.000156637
23 *93:3 *391:5 0.00019527
24 *93:4 *391:4 0.000195270003

*RES
1 *93:23 *662:Y 1.39997
2 *93:22 *93:23 1.49141
3 *93:22 *93:3 0.372832
4 *93:4 *93:3 2.48573
5 *93:14 *93:4 1.39997
6 *93:15 *93:14 0.869994
7 *93:10 *93:15 0.124252
8 *93:11 *93:10 2.48573
9 *93:11 *93:12 0.124252
10 *93:13 *93:12 5.09571409
11 *93:21 *93:13 0.248581
12 *93:6 *706:A 1.39997
13 *93:17 *93:6 0.0643029
14 *93:20 *93:21 1.24283
15 *93:6 *93:5 0.124252
16 *93:7 *93:20 0.124252
17 *93:8 *93:5 1.39997
18 *93:8 *93:7 0.994324
19 *93:9 *93:8 0.994324
20 *93:19 *93:9 1.39997
21 *93:18 *704:A 1.39997
22 *93:18 *93:19 0.124252
23 *93:16 *93:18 0.0643029
*END

*D_NET *94 0.000480129

*CONN
*I *794:A I *C 77.285 63.365 *L 0.00172 *D CLKBUFX2
*I *800:Y O *C 76.415 60.175 *L 0 *D DLY1X4

*CAP
1 *794:A 3.67993e-05
2 *800:Y 3.67993e-05
3 *94:2 7.04185e-05
4 *94:3 0.00018313
5 *94:4 0.000152981

*RES
1 *94:4 *794:A 1.39999998
2 *94:3 *94:4 1.11857
3 *94:2 *94:3 0.372858
4 *800:Y *94:2 1.39999998
*END

*D_NET *95 0.00311492

*CONN
*I *663:Y O *C 30.015 34.945 *L 0 *D DLY1X1
*I *740:A I *C 18.705 37.555 *L 0.00162 *D NOR2XL
*I *710:A0 I *C 20.155 34.365 *L 0.00271 *D OAI21X1
*I *701:A1 I *C 23.345 32.045 *L 0.00271 *D OAI32X1
*I *743:B I *C 25.375 34.655 *L 0.00167 *D NAND2XL
*I *711:A I *C 28.275 39.585 *L 0.00259 *D NOR3X1

*CAP
1 *663:Y 3.67984e-05
2 *740:A 3.67984e-05
3 *710:A0 3.92008e-05
4 *701:A1 3.67984e-05
5 *743:B 3.67984e-05
6 *711:A 3.67984e-05
7 *95:6 8.51397e-05
8 *95:7 8.51397e-05
9 *95:8 0.000186427
10 *95:9 0.000186427
11 *95:10 0.000163578
12 *95:11 0.000163578
13 *95:12 5.97414e-05
14 *95:13 6.06509e-05
15 *95:14 0.00021322
16 *95:15 0.000248848
17 *95:16 0.000267300508
18 *95:17 0.000170492
19 *95:18 4.07303e-05
20 *95:19 4.07303e-05
21 *95:20 4.52496e-05
22 *95:21 4.52496e-05
23 *95:22 5.83097e-05
24 *95:23 5.92193e-05
25 *95:24 2.92405e-05
26 *95:25 2.92405e-05
27 *95:28 5.95007e-05
28 *95:29 4.10322e-05
29 *95:30 0.000140749
30 *95:31 0.000140749
31 *95:32 7.95477e-05
32 *95:33 8.04573e-05
33 *95:34 3.24505e-05
34 *95:35 7.87075e-05

*RES
1 *95:6 *740:A 1.39999
2 *95:7 *95:6 0.497135
3 *95:33 *711:A 1.39999
4 *95:21 *95:7 1.39999
5 *95:32 *95:33 0.372857
6 *95:21 *95:20 0.248579
7 *95:31 *95:32 0.124278
8 *95:28 *710:A0 0.579995
9 *95:8 *95:20 1.39999
10 *95:30 *95:31 1.24285
11 *95:9 *95:28 1.39999
12 *95:9 *95:8 0.745714
13 *95:30 *95:18 0.124278
14 *95:11 *701:A1 1.39999
15 *95:23 *95:9 1.39999
16 *95:19 *95:18 0.248579
17 *95:11 *95:10 0.994293
18 *95:23 *95:22 0.248579
19 *95:19 *95:12 0.124278
20 *95:27 *95:34 0.193051
21 *95:34 *663:Y 1.39999
22 *95:29 *95:10 1.39999
23 *95:17 *95:22 0.124278
24 *95:13 *95:12 0.372857
25 *95:35 *95:34 1.39999
26 *95:29 *95:16 0.124278
27 *95:17 *95:16 1.49142861
28 *95:14 *95:13 1.39999
29 *95:14 *95:35 0.621436
30 *95:24 *743:B 1.39999
31 *95:16 *95:15 0.869992
32 *95:15 *95:14 1.36715
33 *95:25 *95:24 0.124278
34 *95:25 *95:15 1.39999
35 *95:26 *95:25 0.0643124
*END

*D_NET *96 0.00160578

*CONN
*I *560:Y O *C 18.125 48.285 *L 0 *D DLY1X4
*I *612:A I *C 29.725 45.095 *L 0.0017 *D MXI2XL

*CAP
1 *560:Y 3.68038e-05
2 *612:A 3.68038e-05
3 *96:2 8.76982e-05
4 *96:3 8.76982e-05
5 *96:4 9.76147e-05
6 *96:5 9.76147e-05
7 *96:6 0.00058077
8 *96:7 0.00058077

*RES
1 *96:3 *612:A 1.40003
2 *96:3 *96:2 0.372842
3 *96:6 *96:2 1.40003
4 *96:7 *96:6 4.97142839
5 *96:4 *560:Y 1.40003
6 *96:5 *96:7 1.40003
7 *96:5 *96:4 0.745684
*END

*D_NET *97 0.00245609

*CONN
*I *561:Y O *C 56.985 22.185 *L 0 *D DLY1X4
*I *622:A I *C 39.875 21.605 *L 0.0017 *D MXI2XL

*CAP
1 *561:Y 3.67999e-05
2 *622:A 2.56559e-05
3 *97:2 4.50909e-05
4 *97:3 4.50909e-05
5 *97:4 0.000164886
6 *97:5 0.000181468
7 *97:6 0.00070291
8 *97:7 0.000687208
9 *97:8 4.59597e-05
10 *97:9 3.70681e-05
11 *97:10 3.70681e-05
12 *97:11 0.000181211
13 *97:12 4.17874e-05
14 *97:13 4.17874e-05
15 *97:14 0.000182091

*RES
1 *97:12 *561:Y 1.39997
2 *97:12 *97:13 0.248571
3 *97:14 *97:13 1.39997
4 *97:11 *97:14 1.49143
5 *97:10 *97:11 0.124286
6 *97:9 *97:10 0.248571
7 *97:4 *97:9 0.124286
8 *97:5 *97:4 1.36714
9 *97:5 *97:6 0.248571
10 *97:7 *97:6 3.97714281
11 *97:2 *97:7 1.39997
12 *97:3 *97:2 0.248571
13 *97:8 *97:3 1.39997
14 *622:A *97:8 0.386694
*END

*D_NET *98 0.000444579

*CONN
*I *562:Y O *C 48.285 53.505 *L 0 *D DLY1X4
*I *625:A I *C 47.415 50.315 *L 0.0017 *D MXI2XL

*CAP
1 *562:Y 3.68002e-05
2 *625:A 3.68002e-05
3 *98:2 8.18297e-05
4 *98:3 9.684e-05
5 *98:4 5.85e-05
6 *98:5 4.23194e-05
7 *98:6 4.51595e-05
8 *98:7 4.63298e-05

*RES
1 *98:7 *562:Y 1.39999998
2 *98:6 *98:7 0.248572
3 *98:5 *98:6 0.124286
4 *98:4 *98:5 0.248572
5 *98:3 *98:4 0.248572
6 *98:2 *98:3 0.621429
7 *625:A *98:2 1.39999998
*END

*D_NET *99 0.000764581

*CONN
*I *563:Y O *C 52.055 70.615 *L 0 *D DLY1X4
*I *627:A I *C 45.965 71.195 *L 0.0017 *D MXI2XL

*CAP
1 *563:Y 3.68016e-05
2 *627:A 3.68016e-05
3 *99:2 7.37788e-05
4 *99:3 7.46593e-05
5 *99:6 3.24504e-05
6 *99:7 9.35492e-05
7 *99:8 0.00014483
8 *99:9 9.35492e-05
9 *99:10 3.24504e-05
10 *99:11 0.00014571

*RES
1 *99:5 *99:10 0.193051
2 *99:10 *563:Y 1.39999998
3 *99:11 *99:10 1.39999998
4 *99:8 *99:11 1.24286
5 *99:8 *99:9 0.124286
6 *99:7 *99:9 0.994287
7 *99:2 *99:7 0.124286
8 *99:3 *99:2 0.372858
9 *99:6 *627:A 1.39999998
10 *99:6 *99:3 1.39999998
11 *99:4 *99:6 0.193051
*END

*D_NET *100 0.000426441

*CONN
*I *564:Y O *C 49.155 65.975 *L 0 *D DLY2X1
*I *618:A I *C 46.835 65.975 *L 0.0017 *D MXI2XL

*CAP
1 *564:Y 3.68015e-05
2 *618:A 3.68015e-05
3 *100:2 0.00014397
4 *100:3 0.00014397
5 *100:6 3.24495e-05
6 *100:7 3.24495e-05

*RES
1 *100:5 *100:7 0.193051
2 *100:7 *564:Y 1.39999998
3 *100:2 *100:7 1.39999998
4 *100:3 *100:2 0.994287
5 *100:6 *618:A 1.39999998
6 *100:6 *100:3 1.39999998
7 *100:4 *100:6 0.193051
*END

*D_NET *101 0.0025428

*CONN
*I *565:Y O *C 53.215 28.855 *L 0 *D DLY1X4
*I *623:A I *C 34.655 26.825 *L 0.0017 *D MXI2XL

*CAP
1 *565:Y 3.6801e-05
2 *623:A 2.56597e-05
3 *101:2 0.00041368
4 *101:3 0.000341934
5 *101:4 5.45703e-05
6 *101:5 5.45703e-05
7 *101:6 4.59602e-05
8 *101:7 0.000237698
9 *101:8 0.00016527
10 *101:9 0.000386019
11 *101:10 8.34682e-05
12 *101:11 0.000385849
13 *101:12 0.000113502
14 *101:13 8.43204e-05
15 *101:14 0.000113502

*RES
1 *101:14 *565:Y 1.39999
2 *101:12 *101:14 0.870015
3 *101:13 *101:12 1.39999
4 *101:10 *101:13 0.372857
5 *101:10 *101:11 0.124301
6 *101:9 *101:11 2.98285723
7 *101:8 *101:9 0.124301
8 *101:7 *101:8 1.36713
9 *101:2 *101:7 0.870015
10 *101:3 *101:2 2.61
11 *101:4 *101:3 1.39999
12 *101:5 *101:4 0.248556
13 *101:6 *623:A 0.386648
14 *101:6 *101:5 1.39999
*END

*D_NET *102 0.00204622

*CONN
*I *555:A I *C 34.365 39.875 *L 0.00172 *D CLKBUFX2
*I *566:Y O *C 43.645 28.855 *L 0 *D DLY1X4

*CAP
1 *555:A 3.67988e-05
2 *566:Y 3.67988e-05
3 *102:2 0.000199232
4 *102:3 0.000136459
5 *102:4 0.000325513
6 *102:5 0.00038828
7 *102:6 0.000131169
8 *102:7 0.000131169
9 *102:8 5.95203e-05
10 *102:9 5.88448e-05
11 *102:10 0.00021639
12 *102:11 5.44901e-05
13 *102:12 5.44901e-05
14 *102:13 0.000217066

*RES
1 *102:11 *566:Y 1.39999
2 *102:11 *102:12 0.372857
3 *102:13 *102:12 1.39999
4 *102:10 *102:13 1.61573
5 *102:6 *102:10 0.124301
6 *102:7 *102:6 1.36713
7 *102:7 *102:9 0.124301
8 *102:8 *102:9 0.372857
9 *102:3 *102:8 1.39999
10 *102:4 *555:A 1.39999
11 *102:3 *102:2 1.11857
12 *102:5 *102:4 2.98285723
13 *102:5 *102:2 0.621413
*END

*D_NET *103 0.000799497

*CONN
*I *507:A0 I *C 24.48 52.8525 *L 0.00161 *D OAI211XL
*I *567:Y O *C 22.765 53.505 *L 0 *D DLY1X4
*I *617:A I *C 25.085 55.535 *L 0.0017 *D MXI2XL

*CAP
1 *507:A0 1.28192e-05
2 *567:Y 3.67988e-05
3 *617:A 2.56601e-05
4 *103:3 8.83492e-05
5 *103:4 0.00015869
6 *103:5 0.000108999
7 *103:6 0.000108999
8 *103:8 3.90702e-05
9 *103:9 4.00993e-05
10 *103:10 0.000101599
11 *103:11 4.59592e-05
12 *103:12 3.24499e-05

*RES
1 *103:9 *507:A0 0.193329
2 *103:10 *103:9 1.39999998
3 *103:4 *103:10 0.621429
4 *103:4 *567:Y 1.39999998
5 *103:4 *103:3 1.11857
6 *103:3 *103:8 0.124286
7 *103:6 *103:8 1.39999998
8 *103:11 *617:A 0.386658
9 *103:6 *103:5 0.621429
10 *103:12 *103:11 1.39999998
11 *103:12 *103:5 1.39999998
12 *103:7 *103:12 0.193051
*END

*D_NET *104 0.00191376

*CONN
*I *664:Y O *C 23.925 42.195 *L 0 *D DLY1X1
*I *709:B I *C 23.925 37.265 *L 0.00175 *D OR4XL
*I *700:C0 I *C 25.375 39.875 *L 0.0017 *D OAI211XL
*I *740:B I *C 18.415 37.265 *L 0.00171 *D NOR2XL
*I *738:C I *C 21.315 37.555 *L 0.00285 *D NAND3X1
*I *705:B I *C 20.445 39.585 *L 0.00166 *D NAND3XL

*CAP
1 *664:Y 3.68022e-05
2 *709:B 3.68022e-05
3 *700:C0 3.68022e-05
4 *740:B 3.68022e-05
5 *738:C 3.68022e-05
6 *705:B 3.27992e-05
7 *104:6 0.000119811
8 *104:7 0.000107309
9 *104:8 0.0002488
10 *104:9 0.000204251
11 *104:10 0.00025032
12 *104:11 0.00014062
13 *104:12 6.69774e-05
14 *104:13 6.69774e-05
15 *104:14 9.1148e-05
16 *104:15 9.1148e-05
17 *104:19 2.83112e-05
18 *104:20 2.83112e-05
19 *104:21 0.000143511
20 *104:22 7.70116e-05
21 *104:23 3.24478e-05

*RES
1 *104:23 *700:C0 1.39999998
2 *104:18 *104:23 0.193051
3 *104:6 *705:B 0.386658
4 *104:14 *104:23 1.39999998
5 *104:7 *104:6 1.35332
6 *104:15 *104:14 0.621429
7 *104:22 *664:Y 1.39999998
8 *104:12 *104:7 1.39999998
9 *104:8 *104:15 1.39999998
10 *104:8 *104:22 0.870001
11 *104:13 *740:B 1.39999998
12 *104:13 *104:12 0.745715
13 *104:9 *709:B 1.39999998
14 *104:17 *104:9 0.0299927
15 *104:9 *104:8 1.11857
16 *104:11 *104:13 1.39999998
17 *104:21 *104:9 1.39999998
18 *104:20 *738:C 1.39999998
19 *104:11 *104:10 1.24286
20 *104:10 *104:21 1.11857
21 *104:19 *104:20 0.124286
22 *104:19 *104:10 1.39999998
23 *104:16 *104:19 0.0643219
*END

*D_NET *105 0.00191652

*CONN
*I *568:Y O *C 37.265 73.805 *L 0 *D DLY2X1
*I *626:A I *C 45.095 63.365 *L 0.0017 *D MXI2XL

*CAP
1 *568:Y 3.67985e-05
2 *626:A 3.67985e-05
3 *105:2 7.27822e-05
4 *105:3 7.39478e-05
5 *105:4 0.00038972
6 *105:5 0.00038972
7 *105:6 0.00018517
8 *105:7 0.00018517
9 *105:8 0.000101
10 *105:9 0.000102171
11 *105:10 0.000171623
12 *105:11 0.000171623

*RES
1 *105:10 *626:A 1.40002
2 *105:10 *105:11 0.870009
3 *105:4 *105:11 1.40002
4 *105:5 *105:4 3.35571432
5 *105:9 *568:Y 1.40002
6 *105:3 *105:5 1.40002
7 *105:8 *105:9 0.870009
8 *105:3 *105:2 0.870009
9 *105:7 *105:8 0.124272
10 *105:6 *105:2 0.124272
11 *105:6 *105:7 1.86429
*END

*D_NET *106 0.00346427

*CONN
*I *569:Y O *C 66.555 50.315 *L 0 *D DLY2X1
*I *624:A I *C 46.835 58.145 *L 0.0017 *D MXI2XL

*CAP
1 *569:Y 3.67981e-05
2 *624:A 3.67981e-05
3 *106:2 0.000186766
4 *106:3 0.000151046
5 *106:4 4.89043e-05
6 *106:5 4.79915e-05
7 *106:6 0.00060425
8 *106:7 0.00060425
9 *106:8 0.000136626
10 *106:9 0.000100897
11 *106:10 3.93521e-05
12 *106:6 *378:3 1.397e-05
13 *106:7 *378:4 1.397e-05
14 *106:6 *378:4 8.959e-05
15 *106:7 *378:5 8.95899996e-05
16 *106:6 *125:223 2.765e-05
17 *106:7 *125:224 2.765e-05
18 *106:6 *125:224 2.588e-05
19 *106:7 *125:225 2.588e-05
20 *106:6 *125:225 7.156e-05
21 *106:7 *125:216 7.1559999e-05
22 *106:6 *363:11 8.637e-05
23 *106:7 *363:7 8.637e-05
24 *106:6 *363:7 0.00030481
25 *106:7 *363:8 0.000304810002
26 *106:6 *164:8 1.566e-05
27 *106:7 *164:4 1.566e-05
28 *106:9 *164:9 7.491e-05
29 *106:8 *164:10 7.491e-05
30 *106:8 *164:9 2.489e-05
31 *106:2 *164:10 2.48900006e-05

*RES
1 *106:10 *569:Y 1.40002
2 *106:10 *106:5 0.124312
3 *106:9 *624:A 1.40002
4 *106:5 *106:4 0.372806
5 *106:8 *106:9 0.745743
6 *106:6 *106:4 1.40002
7 *106:2 *106:8 0.870055
8 *106:7 *106:6 8.57571411
9 *106:3 *106:2 1.61567
10 *106:3 *106:7 1.40002
*END

*D_NET *107 0.00335287

*CONN
*I *570:Y O *C 72.645 18.995 *L 0 *D DLY2X1
*I *621:A I *C 47.415 21.605 *L 0.0017 *D MXI2XL

*CAP
1 *570:Y 3.68002e-05
2 *621:A 3.68002e-05
3 *107:2 6.68449e-05
4 *107:3 6.68449e-05
5 *107:4 7.98005e-05
6 *107:5 7.98005e-05
7 *107:6 0.000163343
8 *107:7 0.000163316
9 *107:8 0.00059666
10 *107:9 0.00059666
11 *107:10 0.000156469
12 *107:11 0.000157379
13 *107:12 9.07713e-05
14 *107:13 6.70907e-05
15 *107:14 9.07713e-05
16 *107:15 6.79647e-05
17 *107:14 *125:103 1.459e-05
18 *107:12 *125:104 1.459e-05
19 *107:8 *125:120 3.677e-05
20 *107:9 *125:105 3.677e-05
21 *107:8 *125:105 0.00021379
22 *107:9 *125:106 0.00021379
23 *107:8 *125:107 2.372e-05
24 *107:9 *125:108 2.37199946e-05
25 *107:8 *88:9 0.00012891
26 *107:9 *88:10 0.000128909996

*RES
1 *107:5 *570:Y 1.40005
2 *107:5 *107:4 0.621383
3 *107:15 *107:4 1.40005
4 *107:13 *107:15 0.497128
5 *107:13 *107:14 0.124255
6 *107:12 *107:14 0.994255
7 *107:8 *107:12 0.124255
8 *107:9 *107:8 6.96000004
9 *107:9 *107:6 0.124255
10 *107:7 *107:6 1.36713
11 *107:10 *107:7 0.124255
12 *107:2 *621:A 1.40005
13 *107:11 *107:10 0.994255
14 *107:3 *107:2 0.497128
15 *107:3 *107:11 1.40005
*END

*D_NET *108 0.000450992

*CONN
*I *571:Y O *C 18.415 16.385 *L 0 *D DLY2X1
*I *616:A I *C 19.865 18.995 *L 0.0017 *D MXI2XL

*CAP
1 *571:Y 3.6801e-05
2 *616:A 3.6801e-05
3 *108:2 0.000101599
4 *108:3 0.00016856
5 *108:4 0.000107232

*RES
1 *108:4 *616:A 1.39999998
2 *108:3 *108:4 0.870001
3 *108:2 *108:3 0.621429
4 *571:Y *108:2 1.39999998
*END

*D_NET *109 0.00098319

*CONN
*I *572:Y O *C 22.475 24.215 *L 0 *D DLY2X1
*I *611:A I *C 29.145 21.605 *L 0.0017 *D MXI2XL

*CAP
1 *572:Y 3.68008e-05
2 *611:A 1.2821e-05
3 *109:2 0.000117458
4 *109:3 0.000117458
5 *109:4 0.00031305
6 *109:5 0.00031305
7 *109:7 3.24491e-05
8 *109:8 4.01015e-05

*RES
1 *109:8 *611:A 0.193339
2 *109:3 *109:8 1.40002
3 *109:3 *109:2 0.869985
4 *109:4 *109:2 1.40002
5 *109:5 *109:4 2.73428583
6 *109:7 *109:5 1.40002
7 *109:7 *572:Y 1.40002
8 *109:6 *109:7 0.193047
*END

*D_NET *110 0.000573579

*CONN
*I *573:Y O *C 27.115 16.385 *L 0 *D DLY2X1
*I *614:A I *C 29.725 18.995 *L 0.0017 *D MXI2XL

*CAP
1 *573:Y 3.6799e-05
2 *614:A 3.6799e-05
3 *110:2 3.15899e-05
4 *110:3 3.15899e-05
5 *110:4 7.54796e-05
6 *110:5 7.45702e-05
7 *110:6 6.37705e-05
8 *110:7 6.46799e-05
9 *110:9 7.915e-05
10 *110:10 7.915e-05

*RES
1 *110:9 *573:Y 1.39999998
2 *110:9 *110:10 0.621429
3 *110:7 *110:10 1.39999998
4 *110:7 *110:6 0.497144
5 *110:6 *110:5 0.124286
6 *110:5 *110:4 0.621429
7 *110:3 *110:4 1.39999998
8 *110:2 *614:A 1.39999998
9 *110:3 *110:2 0.124286
10 *110:8 *110:2 0.18284
*END

*D_NET *111 0.00203349

*CONN
*I *574:Y O *C 27.985 24.215 *L 0 *D DLY2X1
*I *619:A I *C 43.935 21.605 *L 0.0017 *D MXI2XL

*CAP
1 *574:Y 3.68028e-05
2 *619:A 3.68028e-05
3 *111:2 9.93789e-05
4 *111:3 9.93789e-05
5 *111:4 0.000333631
6 *111:5 0.000334538
7 *111:6 0.000109202
8 *111:7 0.000109202
9 *111:8 4.44718e-05
10 *111:9 4.44718e-05
11 *111:10 0.000392349
12 *111:11 0.000393261133

*RES
1 *111:3 *619:A 1.40002
2 *111:3 *111:2 0.621413
3 *111:11 *111:2 1.40002
4 *111:10 *111:11 2.36143
5 *111:10 *111:6 0.124272
6 *111:7 *111:6 1.11855
7 *111:4 *111:7 0.124272
8 *111:5 *111:4 3.35571432
9 *111:9 *574:Y 1.40002
10 *111:8 *111:5 1.40002
11 *111:8 *111:9 0.248596
*END

*D_NET *112 0.0035131

*CONN
*I *482:Y O *C 35.235 16.675 *L 0 *D DLY4X1
*I *737:A I *C 52.055 26.8725 *L 0.00156 *D XNOR2XL
*I *742:A I *C 52.925 21.605 *L 0.00157 *D NAND2XL

*CAP
1 *482:Y 3.68056e-05
2 *737:A 3.68056e-05
3 *742:A 3.68056e-05
4 *112:3 0.000117684
5 *112:4 0.000117684
6 *112:5 8.30695e-05
7 *112:6 8.42703e-05
8 *112:7 0.000143892
9 *112:8 0.000143892
10 *112:9 0.000126313
11 *112:10 0.000224337
12 *112:11 0.000128083
13 *112:12 8.04449e-05
14 *112:13 8.04449e-05
15 *112:14 0.00081132
16 *112:15 4.79228e-05
17 *112:16 3.90711e-05
18 *112:17 4.79228e-05
19 *112:18 0.00081132
20 *112:9 *88:13 5.595e-05
21 *112:10 *88:12 5.595e-05
22 *112:10 *88:12 2.759e-05
23 *112:11 *88:11 2.759e-05
24 *112:12 *88:13 7.396e-05
25 *112:13 *88:12 7.39599989e-05

*RES
1 *112:12 *737:A 1.40003
2 *112:13 *112:12 0.745721
3 *112:15 *112:13 1.40003
4 *112:15 *112:17 0.248514
5 *112:16 *112:17 1.40003
6 *112:16 *112:9 0.124347
7 *112:10 *742:A 1.40003
8 *112:10 *112:9 1.49144
9 *112:11 *112:10 1.11858
10 *112:7 *112:11 0.124347
11 *112:8 *112:7 1.24293
12 *112:8 *112:5 0.124347
13 *112:6 *112:5 0.621374
14 *112:3 *482:Y 1.40003
15 *112:18 *112:6 1.40003
16 *112:4 *112:3 0.870068
17 *112:14 *112:18 11.7933331
18 *112:14 *112:4 1.40003
*END

*D_NET *113 0.00657524

*CONN
*I *801:Y O *C 48.865 16.385 *L 0 *D DLY3X1
*I *927:A I *C 61.045 68.585 *L 0.00157 *D NAND2XL
*I *925:A0 I *C 57.855 68.875 *L 0.00157 *D OA21XL
*I *930:A I *C 58.725 68.875 *L 0.00264 *D NAND3X1
*I *812:A I *C 60.175 63.655 *L 0.00162 *D NOR2XL

*CAP
1 *801:Y 3.67984e-05
2 *927:A 3.67984e-05
3 *925:A0 5.29435e-05
4 *930:A 1.28253e-05
5 *812:A 3.67984e-05
6 *113:5 0.000216422
7 *113:6 0.000246563
8 *113:7 8.20188e-05
9 *113:8 5.18602e-05
10 *113:9 0.000200818
11 *113:10 0.000200818
12 *113:11 0.000203667
13 *113:12 0.000241129
14 *113:13 7.12903e-05
15 *113:14 0.0011451
16 *113:15 0.0011451
17 *113:18 3.3793e-05
18 *113:19 0.000881029
19 *113:20 0.000881029
20 *113:21 7.72661e-05
21 *113:22 7.63924e-05
22 *113:23 0.000270082
23 *113:24 0.000270955
24 *113:25 3.2465e-05
25 *113:26 4.20578e-05
26 *113:27 2.9215e-05

*RES
1 *113:8 *812:A 1.39994
2 *113:27 *930:A 0.193286
3 *113:8 *113:7 0.372939
4 *113:26 *113:27 0.193286
5 *113:7 *113:6 0.372939
6 *925:A0 *113:26 0.386745
7 *113:5 *927:A 1.39994
8 *113:6 *113:5 1.73992
9 *113:25 *925:A0 1.39994
10 *113:17 *113:25 0.0300284
11 *113:11 *113:5 1.39994
12 *113:12 *113:25 1.39994
13 *113:12 *113:11 1.36715
14 *113:13 *113:12 0.621449
15 *113:14 *113:13 1.39994
16 *113:15 *113:14 11.3100004
17 *113:24 *113:15 1.39994
18 *113:23 *113:24 2.61005
19 *113:22 *113:23 0.124255
20 *113:21 *113:22 0.621449
21 *113:20 *113:21 1.39994
22 *113:10 *801:Y 1.39994
23 *113:19 *113:20 8.8242
24 *113:10 *113:9 2.11286
25 *113:18 *113:19 1.39994
26 *113:18 *113:9 1.39994
27 *113:16 *113:18 0.193114
*END

*D_NET *114 0.00650949

*CONN
*I *802:Y O *C 53.215 16.675 *L 0 *D DLY4X1
*I *932:B I *C 68.005 53.505 *L 0.00158 *D NAND4XL
*I *876:A I *C 69.745 47.705 *L 0.00157 *D NAND2XL
*I *875:A0 I *C 71.485 47.995 *L 0.00271 *D OAI21X1

*CAP
1 *802:Y 3.67981e-05
2 *932:B 3.67981e-05
3 *876:A 5.24414e-05
4 *875:A0 3.67981e-05
5 *114:4 0.000257257
6 *114:5 0.000256972
7 *114:6 0.000199812
8 *114:7 0.000198903
9 *114:8 7.83142e-05
10 *114:9 7.83142e-05
11 *114:10 0.000244245
12 *114:11 0.00021418
13 *114:12 0.000158938
14 *114:13 0.000190198
15 *114:14 0.000584480547
16 *114:15 0.000584480547
17 *114:16 0.000212263
18 *114:17 0.000102974
19 *114:18 0.000143099
20 *114:19 0.000530309
21 *114:20 0.000530309
22 *114:21 3.90991e-05
23 *114:22 0.000177007
24 *114:23 0.000176749
25 *114:24 7.27401e-05
26 *114:25 3.67e-05
27 *114:26 4.3603e-05
28 *114:19 *370:16 0.00022671
29 *114:20 *370:17 0.000226709994
30 *114:23 *365:5 0.00011237
31 *114:22 *365:6 0.00011237
32 *114:23 *365:6 6.258e-05
33 *114:22 *365:7 6.25800008e-05
34 *114:6 *125:155 7.491e-05
35 *114:7 *125:131 7.491e-05
36 *114:6 *125:131 0.00013535
37 *114:7 *125:132 0.00013535
38 *114:6 *125:169 5.93e-06
39 *114:7 *125:354 5.93000515e-06

*RES
1 *114:21 *932:B 1.40002
2 *114:24 *876:A 0.77333
3 *114:21 *114:23 0.124242
4 *114:9 *875:A0 1.40002
5 *114:25 *114:24 1.40002
6 *114:22 *114:23 2.11286
7 *114:9 *114:8 0.248577
8 *114:25 *114:26 0.248577
9 *114:22 *114:26 0.124242
10 *114:18 *114:8 1.40002
11 *114:16 *114:26 1.40002
12 *114:16 *114:18 1.24289
13 *114:17 *114:16 1.11855
14 *114:19 *114:17 1.40002
15 *114:20 *114:19 6.09000015
16 *114:14 *114:20 1.40002
17 *114:15 *114:14 5.09569
18 *114:6 *114:15 1.40002
19 *114:7 *114:6 2.36144
20 *114:7 *114:4 0.124242
21 *114:5 *114:4 1.98862
22 *114:12 *114:5 0.124242
23 *114:13 *114:12 1.49146
24 *114:10 *114:13 0.372819
25 *114:11 *114:10 1.6157
26 *802:Y *114:11 1.40002
*END

*D_NET *115 0.00611504

*CONN
*I *803:Y O *C 66.845 16.385 *L 0 *D DLY3X1
*I *934:A I *C 65.685 65.975 *L 0.00157 *D NAND2XL
*I *906:A I *C 63.365 73.805 *L 0.00157 *D NAND2XL
*I *903:A0 I *C 64.815 74.095 *L 0.00271 *D OAI21X1

*CAP
1 *803:Y 3.68002e-05
2 *934:A 3.68002e-05
3 *906:A 6.41353e-05
4 *903:A0 9.14226e-05
5 *115:4 0.000200133
6 *115:5 0.000184469
7 *115:6 7.99423e-05
8 *115:7 7.99423e-05
9 *115:8 9.21676e-05
10 *115:9 9.21676e-05
11 *115:10 0.000287
12 *115:11 0.000288174
13 *115:12 0.000550675
14 *115:13 0.000550675
15 *115:14 0.000625928047
16 *115:15 0.000625928047
17 *115:17 4.44792e-05
18 *115:18 5.89682e-05
19 *115:19 0.000572347
20 *115:20 0.000571468
21 *115:21 0.000192272
22 *115:22 3.38012e-05
23 *115:23 0.000193151
24 *115:23 *370:7 2.449e-05
25 *115:21 *370:8 2.449e-05
26 *115:23 *370:8 1.984e-05
27 *115:21 *370:9 1.984e-05
28 *115:14 *370:8 5.184e-05
29 *115:15 *370:9 5.184e-05
30 *115:14 *370:10 5.146e-05
31 *115:15 *370:11 5.146e-05
32 *115:20 *370:12 0.00011114
33 *115:19 *370:13 0.00011114
34 *115:20 *370:14 2.232e-05
35 *115:19 *370:15 2.23200031e-05

*RES
1 *115:7 *803:Y 1.40002
2 *115:7 *115:6 0.621413
3 *115:8 *115:6 1.40002
4 *115:9 *115:8 0.621413
5 *115:19 *115:9 1.40002
6 *906:A *903:A0 0.966632
7 *115:19 *115:20 6.71142864
8 *115:17 *903:A0 1.40002
9 *115:13 *115:20 0.124324
10 *115:17 *115:18 0.248545
11 *115:13 *115:12 5.21995
12 *115:18 *115:4 0.248545
13 *115:12 *115:15 0.124324
14 *115:5 *115:4 1.49147
15 *115:15 *115:14 6.5871
16 *115:5 *115:10 0.124324
17 *115:14 *115:21 0.124324
18 *115:11 *934:A 1.40002
19 *115:11 *115:10 2.11289
20 *115:21 *115:23 2.11289
21 *115:22 *115:11 1.40002
22 *115:22 *115:23 1.40002
23 *115:16 *115:22 0.19304
*END

*D_NET *116 0.00634991

*CONN
*I *804:Y O *C 74.675 16.385 *L 0 *D DLY3X1
*I *924:AN I *C 66.265 68.585 *L 0.0017 *D NOR4BBX1
*I *900:A I *C 73.515 63.365 *L 0.00157 *D NAND2XL
*I *896:A0 I *C 74.965 63.655 *L 0.00271 *D OAI21X1

*CAP
1 *804:Y 3.68009e-05
2 *924:AN 3.68009e-05
3 *900:A 3.68009e-05
4 *896:A0 3.68009e-05
5 *116:4 0.000214922
6 *116:5 0.00021609
7 *116:6 0.000105349
8 *116:7 0.00010418
9 *116:8 0.000280642
10 *116:9 0.000280898
11 *116:10 0.000182539
12 *116:11 0.000182539
13 *116:12 0.000200528
14 *116:13 0.000168691
15 *116:14 0.000371873
16 *116:15 0.000355951
17 *116:16 4.07347e-05
18 *116:17 4.07347e-05
19 *116:18 0.000185401
20 *116:19 0.000185111
21 *116:20 4.8305e-05
22 *116:21 6.422e-05
23 *116:22 0.000104021
24 *116:23 0.000135858
25 *116:24 0.00045308
26 *116:25 0.000353221
27 *116:26 5.89104e-05
28 *116:27 8.33015e-05
29 *116:28 0.00033118
30 *116:29 0.000118319
31 *116:30 0.00033118
32 *116:31 0.000194748
33 *116:32 0.000194748
34 *116:33 7.42101e-05
35 *116:34 7.30072e-05
36 *116:35 5.40502e-05
37 *116:12 *121:10 2.946e-05
38 *116:13 *121:11 2.946e-05
39 *116:12 *121:12 8.9e-06
40 *116:13 *121:13 8.9e-06
41 *116:20 *121:29 2.97e-06
42 *116:21 *121:28 2.97e-06
43 *116:14 *121:27 3.769e-05
44 *116:15 *121:26 3.769e-05
45 *116:14 *121:25 0.00012807
46 *116:15 *121:24 0.00012807001

*RES
1 *116:33 *804:Y 1.39998
2 *116:33 *116:34 0.621448
3 *116:31 *116:34 0.12429
4 *116:31 *116:32 1.73999
5 *116:32 *116:11 0.12429
6 *116:11 *116:10 1.73999
7 *116:19 *116:10 0.12429
8 *116:19 *116:18 1.98857
9 *116:18 *116:17 0.12429
10 *116:17 *116:16 0.248579
11 *116:16 *116:15 0.12429
12 *116:15 *116:14 4.10142851
13 *116:14 *116:21 0.248579
14 *116:21 *116:20 0.372869
15 *116:20 *116:13 0.12429
16 *116:13 *116:12 2.11286
17 *116:23 *116:12 0.372869
18 *116:23 *116:22 1.11854
19 *116:22 *116:9 0.12429
20 *116:9 *116:8 2.48573
21 *116:25 *116:8 0.12429
22 *116:35 *896:A0 1.39998
23 *116:25 *116:24 3.2314
24 *116:24 *116:35 0.372869
25 *116:29 *116:24 0.621448
26 *116:27 *900:A 1.39998
27 *116:29 *116:27 0.372869
28 *116:27 *116:26 0.497158
29 *116:30 *116:26 1.39998
30 *116:28 *116:30 2.98289
31 *116:5 *116:28 1.39998
32 *116:6 *924:AN 1.39998
33 *116:5 *116:4 0.994316
34 *116:7 *116:6 0.745737
35 *116:7 *116:4 0.12429
*END

*D_NET *117 0.00559514

*CONN
*I *805:Y O *C 38.425 45.095 *L 0 *D DLY3X1
*I *934:B I *C 66.265 65.975 *L 0.00167 *D NAND2XL
*I *922:A I *C 62.495 63.365 *L 0.00157 *D NAND2XL
*I *920:A0 I *C 62.495 68.875 *L 0.00157 *D OA21XL

*CAP
1 *805:Y 3.67963e-05
2 *934:B 3.67963e-05
3 *922:A 3.67963e-05
4 *920:A0 3.67963e-05
5 *117:4 6.62635e-05
6 *117:5 6.71679e-05
7 *117:6 0.000298874
8 *117:7 0.000418749
9 *117:8 0.000152338
10 *117:9 0.0006172
11 *117:10 0.00061737
12 *117:11 0.000358816
13 *117:12 0.00035907
14 *117:13 0.000138339
15 *117:14 0.000122683
16 *117:15 0.000126357
17 *117:16 7.68616e-05
18 *117:17 5.57691e-05
19 *117:18 0.000131519
20 *117:19 0.000131519
21 *117:20 0.000225874
22 *117:21 0.000226751
23 *117:22 8.06486e-05
24 *117:23 8.06486e-05
25 *117:24 7.68144e-05
26 *117:25 7.68144e-05
27 *117:26 5.94808e-05
28 *117:27 5.88025e-05
29 *117:28 7.87739e-05
30 *117:29 0.000115203
31 *117:30 0.000115203
32 *117:31 7.96217e-05
33 *117:32 6.6028e-05
34 *117:33 6.6028e-05
35 *117:34 6.8694e-05
36 *117:35 5.42053e-05
37 *117:36 0.000125914
38 *117:37 5.35742e-05

*RES
1 *117:22 *934:B 1.40001
2 *117:23 *117:22 0.372844
3 *117:37 *117:23 1.40001
4 *117:8 *922:A 1.40001
5 *117:6 *920:A0 1.40001
6 *117:36 *117:37 0.372844
7 *117:8 *117:7 0.745688
8 *117:7 *117:6 1.49146
9 *117:15 *117:36 0.870028
10 *117:16 *117:7 1.40001
11 *117:16 *117:15 0.372844
12 *117:17 *117:16 0.372844
13 *117:17 *117:18 0.124252
14 *117:19 *117:18 1.11853
15 *117:20 *117:19 0.124252
16 *117:21 *117:20 1.98856
17 *117:35 *117:21 1.40001
18 *117:34 *117:35 0.372844
19 *117:13 *117:34 0.248592
20 *117:14 *117:13 1.36712
21 *117:14 *117:30 0.124252
22 *117:29 *117:30 0.99428
23 *117:29 *117:33 0.124252
24 *117:32 *117:33 0.870028
25 *117:11 *117:32 0.124252
26 *117:12 *117:11 3.48002
27 *117:12 *117:4 0.124252
28 *117:5 *117:4 0.621436
29 *117:31 *117:5 1.40001
30 *117:28 *117:31 0.621436
31 *117:28 *117:9 0.124252
32 *117:10 *117:9 5.84142876
33 *117:27 *117:10 0.124252
34 *117:26 *117:27 0.372844
35 *117:25 *117:26 1.40001
36 *117:24 *117:25 0.497185
37 *805:Y *117:24 1.40001
*END

*D_NET *118 0.00310077

*CONN
*I *585:Q O *C 30.885 70.615 *L 0 *D SDFFQX1
*I *575:A I *C 23.635 47.415 *L 0.00172 *D DLY3X1

*CAP
1 *585:Q 3.68073e-05
2 *575:A 3.68073e-05
3 *118:2 0.000355601
4 *118:3 0.000356766
5 *118:4 0.00081245
6 *118:5 0.000811285
7 *118:6 0.000329307
8 *118:7 0.000329307
9 *118:9 3.24558e-05

*RES
1 *118:4 *585:Q 1.39997
2 *118:5 *118:4 7.33285713
3 *118:2 *118:5 0.12431
4 *118:3 *118:2 2.73427
5 *118:6 *118:3 1.39997
6 *118:7 *118:6 2.98289
7 *118:9 *575:A 1.39997
8 *118:9 *118:7 1.39997
9 *118:8 *118:9 0.193011
*END

*D_NET *119 0.00379424

*CONN
*I *806:Y O *C 42.485 47.995 *L 0 *D DLY4X1
*I *936:A I *C 58.725 63.365 *L 0.00178 *D AND2X1
*I *933:A1N I *C 57.275 60.465 *L 0.00169 *D AOI2BB1X1
*I *872:A I *C 60.175 58.435 *L 0.00162 *D NOR2XL

*CAP
1 *806:Y 3.68036e-05
2 *936:A 3.68036e-05
3 *933:A1N 3.68036e-05
4 *872:A 3.68036e-05
5 *119:4 0.000165418
6 *119:5 0.000150933
7 *119:6 5.62923e-05
8 *119:7 0.000114437
9 *119:8 0.000253018
10 *119:9 0.000210527
11 *119:10 5.40502e-05
12 *119:11 5.40502e-05
13 *119:12 0.00044798
14 *119:13 0.000379848
15 *119:14 6.12277e-05
16 *119:15 6.03801e-05
17 *119:16 0.000162629
18 *119:17 0.000231608
19 *119:18 0.000110206
20 *119:19 0.000110206
21 *119:20 0.000138752
22 *119:21 0.000138752
23 *119:22 4.93198e-05
24 *119:23 4.81509e-05
25 *119:25 3.24492e-05
26 *119:26 3.91004e-05
27 *119:27 3.91004e-05
28 *119:18 *377:9 0.00013383
29 *119:19 *377:10 0.000133829994
30 *119:6 *124:9 4.94e-06
31 *119:7 *124:8 4.94e-06
32 *119:7 *124:9 3.289e-05
33 *119:8 *124:8 3.289e-05
34 *119:7 *124:5 1.256e-05
35 *119:8 *124:4 1.256e-05
36 *119:8 *124:5 8.508e-05
37 *119:9 *124:4 8.50800038e-05

*RES
1 *119:11 *806:Y 1.4
2 *119:11 *119:10 0.37288
3 *119:13 *119:10 1.4
4 *119:13 *119:12 3.60428572
5 *119:12 *119:17 0.869998
6 *119:17 *119:16 1.74
7 *119:16 *119:15 0.124293
8 *119:26 *872:A 1.4
9 *119:15 *119:14 0.37288
10 *119:26 *119:27 0.124293
11 *119:5 *119:14 1.4
12 *119:18 *119:27 1.4
13 *119:5 *119:4 1.98858
14 *119:19 *119:18 1.36712
15 *119:9 *119:4 0.248587
16 *119:8 *119:19 1.4
17 *119:9 *119:8 1.98858
18 *119:7 *933:A1N 1.4
19 *119:8 *119:7 0.994291
20 *119:7 *119:6 0.745705
21 *119:23 *119:6 0.124293
22 *119:23 *119:22 0.37288
23 *119:21 *119:22 1.4
24 *119:21 *119:20 0.745705
25 *119:25 *936:A 1.4
26 *119:25 *119:20 1.4
27 *119:24 *119:25 0.0299734
*END

*D_NET *120 0.00423431

*CONN
*I *488:Y O *C 30.305 42.485 *L 0 *D DLY3X1
*I *534:A I *C 26.825 65.975 *L 0.00157 *D NAND2XL
*I *492:AN I *C 24.795 65.685 *L 0.00178 *D NAND2BX1
*I *506:A0 I *C 24.505 63.365 *L 0.00267 *D OAI211X1
*I *502:A I *C 27.115 63.365 *L 0.0017 *D MXI2XL
*I *531:A I *C 24.795 60.755 *L 0.00157 *D NAND2XL

*CAP
1 *488:Y 3.67987e-05
2 *534:A 3.67987e-05
3 *492:AN 3.67987e-05
4 *506:A0 3.67987e-05
5 *502:A 1.28159e-05
6 *531:A 3.67987e-05
7 *120:6 4.61698e-05
8 *120:7 4.73698e-05
9 *120:8 0.000103286
10 *120:9 9.00703e-05
11 *120:10 6.36549e-05
12 *120:11 9.76456e-05
13 *120:12 8.40624e-05
14 *120:13 5.79816e-05
15 *120:14 4.32801e-05
16 *120:15 8.74173e-05
17 *120:16 8.74173e-05
18 *120:17 0.000141048
19 *120:18 0.000141048
20 *120:19 0.000534960859
21 *120:20 0.000520472
22 *120:21 7.61035e-05
23 *120:22 9.176e-05
24 *120:23 9.27804e-05
25 *120:24 9.27804e-05
26 *120:25 0.000161309
27 *120:26 0.000126143
28 *120:27 5.73368e-05
29 *120:28 0.000220849
30 *120:29 0.000219968
31 *120:30 0.000233812
32 *120:31 0.000233812
33 *120:32 6.02591e-05
34 *120:33 6.11407e-05
35 *120:34 4.00966e-05
36 *120:35 6.17285e-05
37 *120:36 6.17285e-05

*RES
1 *120:16 *488:Y 1.40001
2 *120:16 *120:15 0.372865
3 *120:36 *120:15 1.40001
4 *120:35 *120:36 0.372865
5 *120:33 *120:35 1.40001
6 *120:33 *120:32 0.372865
7 *120:32 *120:31 0.124276
8 *120:31 *120:30 2.11284
9 *120:29 *120:30 0.124276
10 *120:29 *120:28 1.98856
11 *120:17 *120:28 1.40001
12 *120:18 *120:17 0.994282
13 *120:20 *120:18 1.40001
14 *120:20 *120:19 2.3614285
15 *120:22 *120:19 0.248588
16 *120:22 *120:21 0.621417
17 *120:34 *502:A 0.193351
18 *120:21 *120:26 0.124276
19 *120:25 *120:34 1.40001
20 *120:26 *120:25 1.11856
21 *120:10 *534:A 1.40001
22 *120:25 *120:11 0.497141
23 *120:11 *120:10 0.621417
24 *120:23 *120:11 1.40001
25 *120:27 *492:AN 1.40001
26 *120:24 *120:23 0.870006
27 *120:12 *120:27 0.621417
28 *120:12 *120:24 1.40001
29 *120:13 *120:12 0.248588
30 *120:7 *531:A 1.40001
31 *120:14 *120:13 0.124276
32 *120:7 *120:6 0.372865
33 *120:8 *506:A0 1.40001
34 *120:8 *120:14 0.248588
35 *120:9 *120:6 0.124276
36 *120:9 *120:8 0.745729
*END

*D_NET *121 0.00385599

*CONN
*I *807:Y O *C 74.675 32.045 *L 0 *D DLY3X1
*I *917:A I *C 68.295 55.535 *L 0.00157 *D NAND2XL
*I *932:C I *C 67.715 53.215 *L 0.00164 *D NAND4XL
*I *914:A0 I *C 68.005 58.435 *L 0.00157 *D OA21XL

*CAP
1 *807:Y 3.68012e-05
2 *917:A 3.68012e-05
3 *932:C 3.68012e-05
4 *914:A0 3.68012e-05
5 *121:4 0.000109871
6 *121:5 0.000108698
7 *121:6 9.90098e-05
8 *121:7 8.58661e-05
9 *121:8 0.000184201
10 *121:9 0.000185111
11 *121:10 0.000160241
12 *121:11 0.000160241
13 *121:12 7.40765e-05
14 *121:13 7.31673e-05
15 *121:14 8.56364e-05
16 *121:15 8.47908e-05
17 *121:16 0.000121959
18 *121:17 0.000121959
19 *121:18 9.35206e-05
20 *121:19 9.43711e-05
21 *121:20 0.000112251
22 *121:21 0.000143431
23 *121:22 7.72194e-05
24 *121:23 5.8919e-05
25 *121:24 0.00032033
26 *121:25 0.00032033
27 *121:26 4.48076e-05
28 *121:27 4.38984e-05
29 *121:28 3.11019e-05
30 *121:29 3.11019e-05
31 *121:10 *116:12 2.946e-05
32 *121:11 *116:13 2.946e-05
33 *121:12 *116:12 8.9e-06
34 *121:13 *116:13 8.9e-06
35 *121:29 *116:20 2.97e-06
36 *121:28 *116:21 2.97e-06
37 *121:27 *116:14 3.769e-05
38 *121:26 *116:15 3.769e-05
39 *121:25 *116:14 0.00012807
40 *121:24 *116:15 0.00012807001
41 *121:21 *365:5 0.00010027
42 *121:20 *365:6 0.00010027
43 *121:8 *365:6 3.398e-05
44 *121:9 *365:7 3.3979999e-05

*RES
1 *121:26 *807:Y 1.4
2 *121:26 *121:27 0.37288
3 *121:24 *121:27 0.124293
4 *121:24 *121:25 3.60428572
5 *121:25 *121:28 0.124293
6 *121:28 *121:29 0.248587
7 *121:29 *121:11 0.124293
8 *121:4 *914:A0 1.4
9 *121:11 *121:10 1.49141
10 *121:5 *121:4 0.497118
11 *121:13 *121:10 0.124293
12 *121:5 *121:23 0.124293
13 *121:13 *121:12 0.37288
14 *121:6 *917:A 1.4
15 *121:6 *121:23 0.621412
16 *121:14 *121:12 1.4
17 *121:7 *121:6 0.497118
18 *121:15 *121:14 0.994291
19 *121:22 *121:7 0.248587
20 *121:16 *121:15 0.124293
21 *121:21 *932:C 1.4
22 *121:21 *121:22 0.497118
23 *121:17 *121:16 1.11858
24 *121:20 *121:21 1.36712
25 *121:17 *121:18 0.124293
26 *121:8 *121:20 0.124293
27 *121:19 *121:18 0.994291
28 *121:9 *121:8 1.6157
29 *121:9 *121:19 1.4
*END

*D_NET *122 0.00394186

*CONN
*I *808:Y O *C 60.175 42.485 *L 0 *D DLY3X1
*I *924:BN I *C 68.875 68.875 *L 0.00152 *D NOR4BBX1
*I *918:A I *C 68.295 63.365 *L 0.00157 *D NAND2XL
*I *915:A0 I *C 70.325 65.685 *L 0.00157 *D OA21XL

*CAP
1 *808:Y 3.68016e-05
2 *924:BN 3.68016e-05
3 *918:A 3.68016e-05
4 *915:A0 5.22623e-05
5 *122:4 0.000260199805
6 *122:5 0.000259029
7 *122:6 0.000255018
8 *122:7 0.00025619
9 *122:8 0.00014596
10 *122:9 0.000160452
11 *122:10 7.2559e-05
12 *122:11 7.4699e-05
13 *122:12 0.000106542
14 *122:13 0.000144999
15 *122:14 0.00011316
16 *122:15 0.000132869
17 *122:16 0.000149049
18 *122:17 0.000192342
19 *122:18 0.000192342
20 *122:19 0.000179978
21 *122:20 0.000179101
22 *122:21 7.17808e-05
23 *122:22 5.58595e-05
24 *122:23 7.47506e-05
25 *122:24 0.00010568
26 *122:25 5.95083e-05
27 *122:26 5.86308e-05
28 *122:27 0.000103929
29 *122:28 0.000156239
30 *122:29 8.24294e-05
31 *122:30 4.83991e-05
32 *122:31 4.83991e-05
33 *122:32 3.91004e-05

*RES
1 *122:10 *915:A0 0.773327
2 *122:32 *122:10 1.4
3 *122:8 *924:BN 1.4
4 *122:9 *122:32 0.124286
5 *122:9 *122:8 1.24286
6 *122:31 *122:9 0.124286
7 *122:30 *122:31 0.372857
8 *122:29 *122:30 0.124286
9 *122:28 *918:A 1.4
10 *122:28 *122:29 0.745714
11 *122:27 *122:28 0.745714
12 *122:27 *122:6 0.124286
13 *122:7 *122:6 1.98857141
14 *122:19 *122:7 1.4
15 *122:20 *122:19 1.61571
16 *122:17 *122:20 0.124286
17 *122:18 *122:17 1.61571
18 *122:18 *122:26 0.124286
19 *122:25 *122:26 0.372857
20 *122:4 *122:25 1.4
21 *122:5 *122:4 1.98857141
22 *122:5 *122:15 0.124286
23 *122:16 *122:15 1.11857
24 *122:23 *808:Y 1.4
25 *122:22 *122:16 0.248571
26 *122:23 *122:24 0.621429
27 *122:21 *122:22 0.248571
28 *122:12 *122:24 0.372857
29 *122:13 *122:21 0.372857
30 *122:12 *122:11 0.87
31 *122:14 *122:13 1.36714
32 *122:14 *122:11 0.124286
*END

*D_NET *123 0.00327805

*CONN
*I *489:Y O *C 21.315 60.755 *L 0 *D DLY3X1
*I *521:B0 I *C 20.445 71.195 *L 0.00173 *D OAI2BB1XL
*I *501:A I *C 28.565 65.975 *L 0.0017 *D MXI2XL
*I *531:B I *C 25.375 60.755 *L 0.00167 *D NAND2XL
*I *492:B I *C 25.665 65.685 *L 0.00284 *D NAND2BX1
*I *544:A I *C 28.855 68.875 *L 0.00273 *D CLKINVX1

*CAP
1 *489:Y 3.67984e-05
2 *521:B0 3.67984e-05
3 *501:A 3.67984e-05
4 *531:B 3.67984e-05
5 *492:B 3.67984e-05
6 *544:A 3.67984e-05
7 *123:6 0.000177939
8 *123:7 0.000177939
9 *123:8 7.44314e-05
10 *123:9 7.32315e-05
11 *123:10 4.63296e-05
12 *123:11 4.51613e-05
13 *123:12 0.000118167
14 *123:13 9.6579e-05
15 *123:14 5.28792e-05
16 *123:15 0.000159919
17 *123:16 0.000185368
18 *123:17 0.000143662
19 *123:18 0.000143662
20 *123:19 5.83777e-05
21 *123:20 5.98798e-05
22 *123:21 6.07594e-05
23 *123:24 3.24501e-05
24 *123:25 0.000182571
25 *123:26 3.24501e-05
26 *123:27 0.000182571
27 *123:28 0.00029561
28 *123:29 0.00029561
29 *123:30 3.90719e-05
30 *123:6 *63:19 0.00016132
31 *123:7 *63:18 0.00016132

*RES
1 *123:6 *521:B0 1.40002
2 *123:7 *123:6 1.61571
3 *123:21 *123:7 1.40002
4 *123:10 *544:A 1.40002
5 *123:21 *123:20 0.37285
6 *123:11 *123:10 0.248581
7 *123:30 *492:B 1.40002
8 *123:20 *123:18 0.124269
9 *123:13 *501:A 1.40002
10 *123:14 *123:11 0.124269
11 *123:9 *123:30 0.124269
12 *123:18 *123:17 1.36713
13 *123:13 *123:12 0.621431
14 *123:12 *123:14 0.37285
15 *123:9 *123:8 0.745699
16 *123:19 *123:17 0.124269
17 *123:15 *123:12 1.40002
18 *123:16 *123:8 1.40002
19 *123:19 *123:16 0.37285
20 *123:16 *123:15 1.36713
21 *123:29 *123:16 1.40002
22 *123:26 *531:B 1.40002
23 *123:23 *123:26 0.193055
24 *123:28 *123:29 2.85857153
25 *123:27 *123:26 1.40002
26 *123:27 *123:28 1.40002
27 *123:25 *123:27 1.73998
28 *123:24 *123:25 1.40002
29 *123:24 *489:Y 1.40002
30 *123:22 *123:24 0.193055
*END

*D_NET *124 0.00109703

*CONN
*I *809:Y O *C 57.565 55.535 *L 0 *D DLY3X1
*I *811:A0 I *C 57.565 63.655 *L 0.00155 *D AO21X1
*I *936:B I *C 58.145 63.365 *L 0.00172 *D AND2X1
*I *933:A0N I *C 57.855 60.755 *L 0.00172 *D AOI2BB1X1

*CAP
1 *809:Y 3.68e-05
2 *811:A0 3.68e-05
3 *936:B 3.68e-05
4 *933:A0N 3.68e-05
5 *124:4 5.97493e-05
6 *124:5 5.85799e-05
7 *124:6 8.01705e-05
8 *124:7 8.13399e-05
9 *124:8 8.13694e-05
10 *124:9 0.00012923
11 *124:10 9.36407e-05
12 *124:11 4.68213e-05
13 *124:12 4.79907e-05
14 *124:9 *119:6 4.94e-06
15 *124:8 *119:7 4.94e-06
16 *124:9 *119:7 3.289e-05
17 *124:8 *119:8 3.289e-05
18 *124:5 *119:7 1.256e-05
19 *124:4 *119:8 1.256e-05
20 *124:5 *119:8 8.508e-05
21 *124:4 *119:9 8.50800038e-05

*RES
1 *124:7 *811:A0 1.39999998
2 *124:12 *936:B 1.39999998
3 *124:6 *124:7 0.497144
4 *124:11 *124:12 0.372858
5 *124:6 *124:10 0.124286
6 *124:10 *124:11 0.124286
7 *124:9 *933:A0N 1.39999998
8 *124:9 *124:10 0.621429
9 *124:8 *124:9 0.994287
10 *124:5 *124:8 0.124286
11 *124:4 *124:5 0.994287
12 *809:Y *124:4 1.39999998
*END

*D_NET *125 0.0505456

*CONN
*P *125 I *C 45.385 90.19 *L 0
*I *848:CK I *C 57.275 73.515 *L 0.0016 *D DFFQX1
*I *847:CK I *C 54.665 63.075 *L 0.0016 *D DFFQX1
*I *846:CK I *C 70.905 21.315 *L 0.0016 *D DFFQX1
*I *845:CK I *C 70.905 26.535 *L 0.0016 *D DFFQX1
*I *844:CK I *C 72.645 42.195 *L 0.0016 *D DFFQX1
*I *843:CK I *C 70.905 34.945 *L 0.0016 *D DFFQX1
*I *842:CK I *C 53.215 34.945 *L 0.0016 *D DFFQX1
*I *841:CK I *C 53.795 40.165 *L 0.0016 *D DFFQX1
*I *840:CK I *C 56.115 61.045 *L 0.0016 *D DFFQX1
*I *839:CK I *C 67.135 19.285 *L 0.0016 *D DFFQX1
*I *838:CK I *C 61.625 19.285 *L 0.0016 *D DFFQX1
*I *837:CK I *C 55.245 26.535 *L 0.0016 *D DFFQX1
*I *836:CK I *C 57.565 31.755 *L 0.0016 *D DFFQX1
*I *835:CK I *C 58.435 57.855 *L 0.0016 *D DFFQX1
*I *834:CK I *C 53.215 45.385 *L 0.0016 *D DFFQX1
*I *833:CK I *C 51.475 50.315 *L 0.00158 *D DFFHQX1
*I *832:CK I *C 61.625 61.045 *L 0.0016 *D DFFQX1
*I *831:CK I *C 54.955 52.635 *L 0.0016 *D DFFQX1
*I *830:CK I *C 72.355 45.385 *L 0.0016 *D DFFQX1
*I *829:CK I *C 61.625 71.485 *L 0.0016 *D DFFQX1
*I *828:CK I *C 72.645 57.855 *L 0.0016 *D DFFQX1
*I *827:CK I *C 68.295 61.045 *L 0.0016 *D DFFQX1
*I *826:CK I *C 72.355 68.585 *L 0.00158 *D DFFHQX1
*I *825:CK I *C 69.745 71.485 *L 0.0016 *D DFFQX1
*I *824:CK I *C 67.715 73.805 *L 0.00158 *D DFFHQX1
*I *823:CK I *C 72.645 50.605 *L 0.0016 *D DFFQX1
*I *810:CK I *C 50.895 24.505 *L 0.0016 *D DFFQX1
*I *681:CK I *C 42.195 34.655 *L 0.00158 *D DFFHQX1
*I *680:CK I *C 38.425 37.265 *L 0.00158 *D DFFHQX1
*I *679:CK I *C 42.485 45.385 *L 0.0016 *D DFFQX1
*I *678:CK I *C 46.545 36.975 *L 0.00153 *D DFFQXL
*I *677:CK I *C 45.965 26.535 *L 0.0016 *D DFFQX1
*I *676:CK I *C 50.895 19.285 *L 0.0016 *D DFFQX1
*I *675:CK I *C 15.805 45.095 *L 0.00158 *D DFFHQX1
*I *674:CK I *C 22.185 45.385 *L 0.0016 *D DFFQX1
*I *673:CK I *C 15.805 29.725 *L 0.00153 *D DFFQXL
*I *672:CK I *C 26.535 29.725 *L 0.00153 *D DFFQXL
*I *671:CK I *C 27.985 29.725 *L 0.0016 *D DFFQX1
*I *670:CK I *C 26.245 36.975 *L 0.0016 *D DFFQX1
*I *669:CK I *C 32.335 52.635 *L 0.0016 *D DFFQX1
*I *668:CK I *C 38.425 52.635 *L 0.0016 *D DFFQX1
*I *667:CK I *C 32.045 55.825 *L 0.00153 *D DFFQXL
*I *666:CK I *C 44.225 71.195 *L 0.00158 *D DFFHQX1
*I *665:CK I *C 36.395 68.295 *L 0.0016 *D DFFQX1
*I *593:CK I *C 43.355 73.515 *L 0.00153 *D DFFQXL
*I *592:CK I *C 34.075 29.435 *L 0.00158 *D DFFHQX1
*I *591:CK I *C 41.905 50.605 *L 0.00153 *D DFFQXL
*I *590:CK I *C 32.045 21.315 *L 0.0016 *D DFFQX1
*I *589:CK I *C 47.705 57.855 *L 0.0016 *D DFFQX1
*I *588:CK I *C 37.265 19.285 *L 0.00153 *D DFFQXL
*I *587:CK I *C 49.445 19.285 *L 0.0016 *D DFFQX1
*I *586:CK I *C 15.805 57.855 *L 0.00153 *D DFFQXL
*I *585:CK I *C 31.465 71.485 *L 0.00157 *D SDFFQX1
*I *584:CK I *C 45.095 68.295 *L 0.0016 *D DFFQX1
*I *583:CK I *C 15.805 21.315 *L 0.0016 *D DFFQX1
*I *582:CK I *C 21.895 21.315 *L 0.0016 *D DFFQX1
*I *581:CK I *C 23.055 19.285 *L 0.0016 *D DFFQX1
*I *580:CK I *C 26.825 50.605 *L 0.00153 *D DFFQXL
*I *579:CK I *C 38.715 19.285 *L 0.0016 *D DFFQX1
*I *578:CK I *C 26.535 58.145 *L 0.00158 *D DFFHQX1
*I *577:CK I *C 45.385 61.045 *L 0.0016 *D DFFQX1
*I *576:CK I *C 16.385 55.825 *L 0.0016 *D DFFQX1
*I *496:CK I *C 25.375 71.485 *L 0.0016 *D DFFQX1
*I *495:CK I *C 27.405 61.045 *L 0.0016 *D DFFQX1
*I *494:CK I *C 20.445 73.515 *L 0.0016 *D DFFQX1
*I *493:CK I *C 21.895 73.515 *L 0.0016 *D DFFQX1
*I *490:CK I *C 15.805 63.075 *L 0.0016 *D DFFQX1

*CAP
1 *125 0.000520354
2 *848:CK 3.67958e-05
3 *847:CK 3.67958e-05
4 *846:CK 3.67958e-05
5 *845:CK 3.67958e-05
6 *844:CK 3.67958e-05
7 *843:CK 3.67958e-05
8 *842:CK 3.67958e-05
9 *841:CK 3.67958e-05
10 *840:CK 3.67958e-05
11 *839:CK 3.67958e-05
12 *838:CK 3.67958e-05
13 *837:CK 3.67958e-05
14 *836:CK 3.67958e-05
15 *835:CK 3.67958e-05
16 *834:CK 3.67958e-05
17 *833:CK 3.67958e-05
18 *832:CK 3.67958e-05
19 *831:CK 3.67958e-05
20 *830:CK 3.67958e-05
21 *829:CK 3.67958e-05
22 *828:CK 3.67958e-05
23 *827:CK 3.67958e-05
24 *826:CK 3.67958e-05
25 *825:CK 3.67958e-05
26 *824:CK 3.67958e-05
27 *823:CK 3.67958e-05
28 *810:CK 3.67958e-05
29 *681:CK 3.67958e-05
30 *680:CK 3.67958e-05
31 *679:CK 3.67958e-05
32 *678:CK 3.67958e-05
33 *677:CK 3.67958e-05
34 *676:CK 3.67958e-05
35 *675:CK 3.67958e-05
36 *674:CK 3.67958e-05
37 *673:CK 3.67958e-05
38 *672:CK 3.67958e-05
39 *671:CK 3.67958e-05
40 *670:CK 3.67958e-05
41 *669:CK 3.67958e-05
42 *668:CK 3.67958e-05
43 *667:CK 3.67958e-05
44 *666:CK 3.67958e-05
45 *665:CK 3.67958e-05
46 *593:CK 3.67958e-05
47 *592:CK 3.67958e-05
48 *591:CK 3.67958e-05
49 *590:CK 3.67958e-05
50 *589:CK 3.67958e-05
51 *588:CK 3.67958e-05
52 *587:CK 3.67958e-05
53 *586:CK 3.67958e-05
54 *585:CK 3.67958e-05
55 *584:CK 3.67958e-05
56 *583:CK 3.67958e-05
57 *582:CK 3.67958e-05
58 *581:CK 3.67958e-05
59 *580:CK 3.67958e-05
60 *579:CK 3.67958e-05
61 *578:CK 3.67958e-05
62 *577:CK 3.67958e-05
63 *576:CK 3.67958e-05
64 *496:CK 3.67958e-05
65 *495:CK 3.67958e-05
66 *494:CK 3.67958e-05
67 *493:CK 3.67958e-05
68 *490:CK 3.67958e-05
69 *125:68 0.000174331
70 *125:69 0.000175528
71 *125:70 7.52145e-05
72 *125:71 7.43129e-05
73 *125:72 0.000233324
74 *125:73 0.000233324
75 *125:74 0.000537182148
76 *125:75 3.64597e-05
77 *125:76 7.53785e-05
78 *125:77 7.02144e-05
79 *125:78 0.000277145
80 *125:79 0.000277145
81 *125:80 0.000163872
82 *125:81 0.000176798
83 *125:82 4.44844e-05
84 *125:83 0.000131011
85 *125:84 0.000373728
86 *125:85 5.19354e-05
87 *125:86 5.19354e-05
88 *125:87 0.000253382
89 *125:88 0.000378023
90 *125:89 0.000260423
91 *125:90 0.000101412
92 *125:91 0.000123929
93 *125:92 5.49764e-05
94 *125:93 7.12308e-05
95 *125:94 7.12308e-05
96 *125:95 7.36407e-05
97 *125:96 7.2444e-05
98 *125:97 7.57309e-05
99 *125:98 5.32305e-05
100 *125:99 0.000180192
101 *125:100 0.000212029
102 *125:101 0.00048873
103 *125:102 0.000434246
104 *125:103 3.89597e-05
105 *125:104 3.80827e-05
106 *125:105 0.000229447
107 *125:106 0.000218889
108 *125:107 6.51897e-05
109 *125:108 6.51897e-05
110 *125:109 0.000297948
111 *125:110 0.000116551
112 *125:111 7.61654e-05
113 *125:112 0.000137486
114 *125:113 0.000170782
115 *125:114 0.000229881
116 *125:115 9.29116e-05
117 *125:116 8.2395e-05
118 *125:117 0.00031835
119 *125:118 6.46815e-05
120 *125:119 6.58783e-05
121 *125:120 4.34926e-05
122 *125:121 4.22631e-05
123 *125:122 4.22631e-05
124 *125:123 6.98128e-05
125 *125:124 0.000138937
126 *125:125 0.000370736
127 *125:126 0.000274054
128 *125:127 0.000269759
129 *125:128 5.58945e-05
130 *125:129 5.46977e-05
131 *125:130 0.000171462
132 *125:131 0.000202127
133 *125:132 0.000156019
134 *125:133 0.000291391
135 *125:134 0.000292301
136 *125:135 7.47801e-05
137 *125:136 0.000172577
138 *125:137 0.000172577
139 *125:138 4.21647e-05
140 *125:139 0.000228414
141 *125:140 0.000244644
142 *125:141 5.9288e-05
143 *125:142 0.000459861
144 *125:143 0.000425196
145 *125:144 0.00021534
146 *125:145 0.000250677
147 *125:146 6.19602e-05
148 *125:147 6.12798e-05
149 *125:148 0.000299702
150 *125:149 0.00029885
151 *125:150 0.000294251
152 *125:151 0.000429721
153 *125:152 2.92792e-05
154 *125:153 4.59517e-05
155 *125:154 0.000185102
156 *125:155 9.35755e-05
157 *125:156 5.83208e-05
158 *125:157 5.83208e-05
159 *125:158 0.000121691
160 *125:159 0.000121691
161 *125:160 0.000107912
162 *125:161 5.35092e-05
163 *125:162 5.31403e-05
164 *125:163 0.00018852
165 *125:164 0.000283063
166 *125:165 0.000144519
167 *125:166 0.000330072
168 *125:167 0.000330744
169 *125:168 0.00044741
170 *125:169 0.000277849
171 *125:170 8.96902e-05
172 *125:171 8.96902e-05
173 *125:172 0.000132798
174 *125:173 0.00025298
175 *125:174 0.000243357
176 *125:175 4.20664e-05
177 *125:176 4.63697e-05
178 *125:177 4.63697e-05
179 *125:178 5.61732e-05
180 *125:179 4.47631e-05
181 *125:180 0.000107895
182 *125:181 0.000122904
183 *125:182 0.000201602
184 *125:183 0.000233439
185 *125:184 0.000411827
186 *125:185 7.10751e-05
187 *125:186 7.10751e-05
188 *125:187 4.29598e-05
189 *125:188 3.06481e-05
190 *125:189 3.06481e-05
191 *125:190 8.30917e-05
192 *125:191 8.40016e-05
193 *125:192 6.13454e-05
194 *125:193 4.63287e-05
195 *125:194 8.33376e-05
196 *125:195 8.2436e-05
197 *125:196 0.000262661
198 *125:197 0.000262661
199 *125:198 6.30831e-05
200 *125:199 6.30831e-05
201 *125:200 0.000163667
202 *125:201 0.000127412
203 *125:202 0.000251759
204 *125:203 0.000506452
205 *125:204 0.00042859
206 *125:205 6.34848e-05
207 *125:206 6.46897e-05
208 *125:207 5.93782e-05
209 *125:208 0.000200938
210 *125:209 0.000189028
211 *125:210 6.06323e-05
212 *125:211 6.13126e-05
213 *125:212 0.000178774
214 *125:213 0.000178774
215 *125:214 0.000293079
216 *125:215 0.000311932
217 *125:216 0.000504059
218 *125:217 0.000130945
219 *125:218 7.43047e-05
220 *125:219 7.3526e-05
221 *125:220 0.00010492
222 *125:221 9.28952e-05
223 *125:222 4.33123e-05
224 *125:223 7.84195e-05
225 *125:224 0.000123871
226 *125:225 0.000451705
227 *125:226 5.46813e-05
228 *125:227 6.76406e-05
229 *125:228 6.76406e-05
230 *125:229 0.000210889
231 *125:230 0.000240808
232 *125:231 4.29352e-05
233 *125:232 2.70169e-05
234 *125:233 0.000104789
235 *125:234 0.000104789
236 *125:235 0.000177339
237 *125:236 0.00013165
238 *125:237 0.000109117
239 *125:238 0.000278169
240 *125:239 0.000366408
241 *125:240 0.000117568
242 *125:241 0.000138535
243 *125:242 8.81902e-05
244 *125:243 8.90672e-05
245 *125:244 0.000219791
246 *125:245 0.000219791
247 *125:246 5.55092e-05
248 *125:247 5.46322e-05
249 *125:248 6.75504e-05
250 *125:249 4.0468e-05
251 *125:250 0.000247226
252 *125:251 0.000228971
253 *125:252 0.000129535
254 *125:253 0.000129535
255 *125:254 7.6567e-05
256 *125:255 7.6567e-05
257 *125:256 0.000188028
258 *125:257 0.000188028
259 *125:258 9.56083e-05
260 *125:259 0.000363867
261 *125:260 0.000290768
262 *125:261 9.11001e-05
263 *125:262 0.000123617
264 *125:263 0.000123617
265 *125:264 7.94769e-05
266 *125:265 8.0649e-05
267 *125:266 6.01487e-05
268 *125:267 6.01487e-05
269 *125:268 0.0001642
270 *125:269 7.68949e-05
271 *125:270 8.74525e-05
272 *125:271 4.16401e-05
273 *125:272 6.94111e-05
274 *125:273 6.94111e-05
275 *125:274 0.000174356
276 *125:275 0.00019002
277 *125:276 8.03212e-05
278 *125:277 7.9149e-05
279 *125:278 5.47879e-05
280 *125:279 5.47879e-05
281 *125:280 6.53127e-05
282 *125:281 9.52313e-05
283 *125:282 6.23782e-05
284 *125:283 9.99199e-05
285 *125:284 8.49114e-05
286 *125:285 4.28779e-05
287 *125:286 4.28779e-05
288 *125:287 0.000151257
289 *125:288 8.00671e-05
290 *125:289 0.000134839
291 *125:290 8.72311e-05
292 *125:291 0.0001091
293 *125:292 0.0001091
294 *125:293 0.00018088
295 *125:294 0.00018088
296 *125:295 0.000275399
297 *125:296 0.000275399
298 *125:297 0.000497837
299 *125:298 0.000310121
300 *125:299 6.51897e-05
301 *125:300 6.51897e-05
302 *125:301 0.000174348
303 *125:302 0.00015147
304 *125:303 0.000161839
305 *125:304 0.000204299
306 *125:305 6.01978e-05
307 *125:306 8.169e-05
308 *125:307 5.39518e-05
309 *125:308 8.39032e-05
310 *125:309 0.000100674
311 *125:310 0.000247242
312 *125:311 0.00011551
313 *125:312 0.00011551
314 *125:313 5.44764e-05
315 *125:314 5.44764e-05
316 *125:324 3.90663e-05
317 *125:325 5.93782e-05
318 *125:326 3.24514e-05
319 *125:327 7.62719e-05
320 *125:328 3.24514e-05
321 *125:329 3.24514e-05
322 *125:330 3.93614e-05
323 *125:331 0.000320514
324 *125:332 3.24514e-05
325 *125:333 0.000320514
326 *125:334 3.93614e-05
327 *125:335 3.90991e-05
328 *125:336 7.01488e-05
329 *125:337 3.95499e-05
330 *125:338 3.95499e-05
331 *125:339 3.24514e-05
332 *125:340 5.18944e-05
333 *125:341 3.24514e-05
334 *125:342 0.000101592
335 *125:343 5.04108e-05
336 *125:344 4.18696e-05
337 *125:345 6.72635e-05
338 *125:346 6.30749e-05
339 *125:347 9.26903e-05
340 *125:348 0.000125355
341 *125:349 0.000119568
342 *125:350 7.38292e-05
343 *125:351 8.19114e-05
344 *125:352 8.19114e-05
345 *125:353 0.000125355
346 *125:354 6.86242e-05
347 *125:355 4.405e-05
348 *125:356 5.70093e-05
349 *125:357 3.24514e-05
350 *125:358 4.5009e-05
351 *125:359 4.43697e-05
352 *125:360 5.5665e-05
353 *125:361 5.5665e-05
354 *125:362 5.63699e-05
355 *125:363 0.000143994
356 *125:364 4.405e-05
357 *125:365 6.84111e-05
358 *125:366 0.000143994
359 *125:367 3.90663e-05
360 *125:368 9.25099e-05
361 *125:369 0.000121297
362 *125:370 9.25099e-05
363 *125:371 3.97876e-05
364 *125:372 3.97876e-05
365 *125:373 0.000153855
366 *125:374 0.000122838
367 *125:375 0.000122838
368 *125:376 7.11981e-05
369 *125:377 0.000101846
370 *125:378 5.52797e-05
371 *125:364 *365:12 1.459e-05
372 *125:362 *365:13 1.459e-05
373 *125:362 *365:12 1.427e-05
374 *125:359 *365:13 1.427e-05
375 *125:358 *365:12 1.364e-05
376 *125:356 *365:13 1.364e-05
377 *125:356 *365:12 1.459e-05
378 *125:355 *365:13 1.459e-05
379 *125:366 *365:12 2.709e-05
380 *125:363 *365:13 2.709e-05
381 *125:291 *365:12 2.568e-05
382 *125:292 *365:13 2.568e-05
383 *125:295 *365:12 6.44e-05
384 *125:296 *365:13 6.44e-05
385 *125:377 *365:12 2.283e-05
386 *125:373 *365:13 2.283e-05
387 *125:373 *365:12 1.998e-05
388 *125:369 *365:13 1.99799943e-05
389 *125:293 *163:10 7.62e-06
390 *125:294 *163:11 7.62e-06
391 *125 *163 0.00023697
392 *125:74 *163:8 0.00023697
393 *125 *163:8 2.468e-05
394 *125:74 *163:9 2.468e-05
395 *125:349 *163:6 9.87e-06
396 *125:347 *163:7 9.87001345e-06
397 *125:293 *148:23 7.92e-06
398 *125:294 *148:14 7.92e-06
399 *125:301 *148:14 2.82e-05
400 *125:302 *148:15 2.82e-05
401 *125:274 *148:5 5.663e-05
402 *125:275 *148:6 5.663e-05
403 *125:281 *148:16 9.834e-05
404 *125:282 *148:17 9.83399968e-05
405 *125:278 *166:17 4.45e-06
406 *125:279 *166:14 4.45e-06
407 *125:278 *166:14 2.17e-06
408 *125:279 *166:10 2.17e-06
409 *125:75 *166:16 9.87e-06
410 *125:76 *166:15 9.87e-06
411 *125:76 *166:16 4.94e-06
412 *125:77 *166:15 4.94e-06
413 *125:76 *166:15 9.87e-06
414 *125:77 *166:13 9.87e-06
415 *125:280 *166:16 6.083e-05
416 *125:281 *166:15 6.083e-05
417 *125:281 *166:16 9.811e-05
418 *125:282 *166:15 9.8109998e-05
419 *125:268 *367:18 1.568e-05
420 *125:259 *367:16 1.568e-05
421 *125:268 *367:20 1.274e-05
422 *125:259 *367:17 1.274e-05
423 *125:268 *367:15 4.86e-06
424 *125:259 *367:14 4.86e-06
425 *125:259 *367:15 9.41e-06
426 *125:260 *367:14 9.41e-06
427 *125:229 *367:10 6.281e-05
428 *125:230 *367:11 6.281e-05
429 *125:230 *367:10 8.793e-05
430 *125:269 *367:11 8.793e-05
431 *125:240 *367:6 2.06e-05
432 *125:241 *367:7 2.06e-05
433 *125:102 *367:6 2.749e-05
434 *125:258 *367:7 2.749e-05
435 *125:254 *367:4 4.94e-06
436 *125:255 *367:5 4.93999966e-06
437 *125:259 *83:11 0.00010228
438 *125:260 *83:12 0.00010228
439 *125:260 *83:11 5.227e-05
440 *125:261 *83:12 5.22700031e-05
441 *125:223 *106:6 2.765e-05
442 *125:224 *106:7 2.765e-05
443 *125:224 *106:6 2.588e-05
444 *125:225 *106:7 2.588e-05
445 *125:225 *106:6 7.156e-05
446 *125:216 *106:7 7.1559999e-05
447 *125:145 *154:20 1.459e-05
448 *125:142 *154:16 1.459e-05
449 *125:142 *154:17 3.139e-05
450 *125:143 *154:15 3.139e-05
451 *125:142 *154:10 4.17e-05
452 *125:143 *154:8 4.17e-05
453 *125:142 *154:14 1.85e-05
454 *125:143 *154:12 1.85000001e-05
455 *125:103 *107:14 1.459e-05
456 *125:104 *107:12 1.459e-05
457 *125:120 *107:8 3.677e-05
458 *125:105 *107:9 3.677e-05
459 *125:105 *107:8 0.00021379
460 *125:106 *107:9 0.00021379
461 *125:107 *107:8 2.372e-05
462 *125:108 *107:9 2.37199946e-05
463 *125:103 *178:4 8.56e-06
464 *125:104 *178:5 8.56e-06
465 *125:105 *178:4 1.335e-05
466 *125:106 *178:5 1.335e-05
467 *125:107 *178:4 2.186e-05
468 *125:108 *178:5 2.186e-05
469 *125:109 *178:16 7.95e-06
470 *125:110 *178 7.95e-06
471 *125:84 *178:15 0.00010004
472 *125:109 *178:14 0.00010004
473 *125:109 *178:15 3.666e-05
474 *125:110 *178:14 3.666e-05
475 *125:111 *178:15 7.95e-06
476 *125:112 *178:14 7.95000023e-06
477 *125:138 *409:18 3.7e-05
478 *125:139 *409:19 3.7e-05
479 *125:139 *409:12 6.281e-05
480 *125:140 *409:13 6.281e-05
481 *125:139 *409:10 5.605e-05
482 *125:140 *409:11 5.605e-05
483 *125:140 *409:24 9.58e-06
484 *125:141 *409:23 9.57999e-06
485 *125:155 *114:6 7.491e-05
486 *125:131 *114:7 7.491e-05
487 *125:131 *114:6 0.00013535
488 *125:132 *114:7 0.00013535
489 *125:169 *114:6 5.93e-06
490 *125:354 *114:7 5.93000515e-06
491 *125:184 *46:8 1.225e-05
492 *125:168 *46:9 1.225e-05
493 *125:185 *46:8 3.7e-05
494 *125:186 *46:9 3.7e-05
495 *125:187 *46:2 3.769e-05
496 *125:178 *46:3 3.769e-05
497 *125:178 *46:2 3.746e-05
498 *125:179 *46:3 3.746e-05
499 *125:78 *46:2 9.58e-06
500 *125:79 *46:3 9.58000308e-06
501 *125:70 *174:22 9.87e-06
502 *125:71 *174:4 9.87e-06
503 *125:133 *174:4 0.00015984
504 *125:134 *174:5 0.00015984
505 *125:133 *174:9 3.806e-05
506 *125:134 *174:10 3.806e-05
507 *125:156 *174:9 1.187e-05
508 *125:157 *174:10 1.18700053e-05
509 *125:68 *152:11 1.256e-05
510 *125:69 *152:12 1.256e-05
511 *125:136 *152:13 8.725e-05
512 *125:137 *152:9 8.725e-05
513 *125:68 *152:9 7.986e-05
514 *125:69 *152:10 7.986e-05
515 *125:136 *152:9 1.21e-05
516 *125:137 *152:10 1.20999927e-05

*RES
1 *125:119 *581:CK 1.40003
2 *125:342 *579:CK 1.40003
3 *125:119 *125:118 0.497131
4 *125:156 *590:CK 1.40003
5 *125:124 *588:CK 1.40003
6 *125:124 *125:342 0.621465
7 *125:118 *125:129 0.124333
8 *125:157 *125:156 0.497131
9 *125:124 *125:123 0.372899
10 *125:129 *125:128 0.372899
11 *125:115 *125:157 1.40003
12 *125:113 *125:123 1.40003
13 *125:328 *582:CK 1.40003
14 *125:316 *125:328 0.0299525
15 *125:116 *125:128 1.40003
16 *125:115 *125:114 0.745697
17 *125:114 *125:113 1.49139
18 *125:117 *125:328 1.40003
19 *125:117 *125:116 0.621465
20 *125:134 *125:114 1.40003
21 *125:127 *125:117 2.60999
22 *125:134 *125:133 3.35569
23 *125:188 *674:CK 1.40003
24 *125:318 *125:188 0.182831
25 *125:69 *583:CK 1.40003
26 *125:69 *125:127 1.40003
27 *125:133 *125:71 0.124333
28 *125:189 *125:188 0.124333
29 *125:69 *125:68 2.23719
30 *125:70 *592:CK 1.40003
31 *125:71 *125:70 0.621465
32 *125:194 *125:189 1.40003
33 *125:137 *125:68 0.124333
34 *125:146 *125:70 1.40003
35 *125:195 *125:194 0.372899
36 *125:137 *125:136 1.36716
37 *125:147 *125:146 0.372899
38 *125:196 *125:195 0.124333
39 *125:334 *672:CK 1.40003
40 *125:324 *673:CK 1.40003
41 *125:136 *125:324 0.124333
42 *125:339 *671:CK 1.40003
43 *125:321 *125:339 0.193083
44 *125:147 *125:144 0.124333
45 *125:197 *125:196 1.98853
46 *125:330 *125:334 0.124333
47 *125:143 *125:324 1.40003
48 *125:145 *125:339 1.40003
49 *125:145 *125:144 2.23719
50 *125:197 *125:190 0.124333
51 *125:142 *125:330 1.40003
52 *125:143 *125:142 4.47428
53 *125:142 *125:145 0.745697
54 *125:191 *125:190 0.372899
55 *125:325 *586:CK 1.40003
56 *125:238 *490:CK 1.40003
57 *125:331 *125:142 1.40003
58 *125:367 *839:CK 1.40003
59 *125:122 *838:CK 1.40003
60 *125:206 *675:CK 1.40003
61 *125:206 *125:191 1.40003
62 *125:325 *125:239 0.248566
63 *125:239 *125:238 1.98853
64 *125:332 *670:CK 1.40003
65 *125:319 *125:332 0.193083
66 *125:331 *125:333 3.10712
67 *125:96 *125:367 0.124333
68 *125:122 *125:121 0.372899
69 *125:206 *125:205 0.497131
70 *125:235 *125:239 0.497131
71 *125:167 *125:332 1.40003
72 *125:167 *125:333 1.40003
73 *125:320 *125:167 0.0299525
74 *125:96 *125:95 0.372899
75 *125:106 *125:121 1.40003
76 *125:205 *125:199 0.124333
77 *125:236 *125:235 1.1186
78 *125:167 *125:166 2.60999
79 *125:105 *125:95 1.40003
80 *125:106 *125:105 2.23719
81 *125:199 *125:198 0.372899
82 *125:234 *125:236 1.40003
83 *125:341 *680:CK 1.40003
84 *125:322 *125:341 0.193083
85 *125:166 *125:174 0.124333
86 *125:105 *125:120 0.372899
87 *125:198 *125:204 0.124333
88 *125:234 *125:233 0.745697
89 *125:173 *125:341 1.40003
90 *125:174 *125:173 2.60999
91 *125:108 *125:120 0.124333
92 *125:203 *576:CK 1.40003
93 *125:204 *125:203 3.72859
94 *125:203 *125:233 1.40003
95 *125:173 *125:175 0.248566
96 *125:108 *125:107 0.994263
97 *125:180 *844:CK 1.40003
98 *125:335 *495:CK 1.40003
99 *125:203 *125:237 0.621465
100 *125:177 *125:175 0.124333
101 *125:107 *125:104 0.124333
102 *125:181 *125:180 0.994263
103 *125:335 *125:338 0.124333
104 *125:243 *125:237 1.40003
105 *125:177 *125:176 0.248566
106 *125:104 *125:103 0.372899
107 *125:99 *125:181 0.248566
108 *125:337 *125:338 0.248566
109 *125:243 *125:242 0.621465
110 *125:343 *125:176 0.124333
111 *125:141 *125:103 1.40003
112 *125:100 *125:99 1.49139
113 *125:337 *125:262 0.124333
114 *125:245 *125:242 0.124333
115 *125:171 *681:CK 1.40003
116 *125:343 *125:345 0.372899
117 *125:140 *846:CK 1.40003
118 *125:141 *125:140 0.497131
119 *125:172 *125:100 0.497131
120 *125:263 *125:262 0.994263
121 *125:272 *578:CK 1.40003
122 *125:245 *125:244 1.86429
123 *125:171 *125:170 0.621465
124 *125:165 *125:345 0.248566
125 *125:139 *845:CK 1.40003
126 *125:140 *125:139 2.23719
127 *125:160 *843:CK 1.40003
128 *125:160 *125:172 0.621465
129 *125:264 *125:263 0.124333
130 *125:273 *125:272 0.372899
131 *125:244 *125:251 0.124333
132 *125:164 *125:170 1.40003
133 *125:165 *125:164 0.745697
134 *125:139 *125:138 0.372899
135 *125:161 *125:160 0.372899
136 *125:265 *125:264 0.372899
137 *125:250 *125:273 1.40003
138 *125:251 *125:250 1.86429
139 *125:164 *125:163 1.86429
140 *125:187 *678:CK 1.40003
141 *125:138 *125:374 0.124333
142 *125:161 *125:158 0.124333
143 *125:336 *125:265 1.40003
144 *125:250 *125:336 0.497131
145 *125:178 *125:163 1.40003
146 *125:178 *125:187 0.372899
147 *125:374 *125:375 1.1186
148 *125:159 *125:158 0.994263
149 *125:336 *125:340 0.372899
150 *125:111 *587:CK 1.40003
151 *125:179 *125:178 0.372899
152 *125:98 *125:375 0.124333
153 *125:162 *125:159 0.124333
154 *125:340 *125:253 0.124333
155 *125:112 *125:111 0.745697
156 *125:78 *125:179 0.124333
157 *125:98 *125:97 0.372899
158 *125:97 *125:162 0.372899
159 *125:253 *125:252 1.1186
160 *125:112 *125:110 0.621465
161 *125:79 *125:78 2.11286
162 *125:148 *125:97 1.40003
163 *125:247 *125:252 0.124333
164 *125:109 *676:CK 1.40003
165 *125:110 *125:109 0.745697
166 *125:82 *677:CK 1.40003
167 *125:80 *125:79 0.124333
168 *125:149 *125:148 2.98289
169 *125:247 *125:246 0.372899
170 *125:267 *580:CK 1.40003
171 *125:84 *810:CK 1.40003
172 *125:109 *125:84 2.23719
173 *125:82 *125:81 0.248566
174 *125:81 *125:80 1.36716
175 *125:86 *837:CK 1.40003
176 *125:149 *125:152 0.124333
177 *125:248 *125:246 1.40003
178 *125:267 *125:266 0.372899
179 *125:84 *125:83 1.1186
180 *125:126 *125:81 1.40003
181 *125:86 *125:85 0.248566
182 *125:153 *125:152 0.124333
183 *125:200 *667:CK 1.40003
184 *125:200 *125:248 0.621465
185 *125:211 *125:266 1.40003
186 *125:125 *125:83 1.40003
187 *125:126 *125:125 2.11286
188 *125:135 *125:85 1.40003
189 *125:357 *836:CK 1.40003
190 *125:323 *125:357 0.193083
191 *125:153 *125:150 0.248566
192 *125:201 *125:200 1.1186
193 *125:211 *125:210 0.372899
194 *125:125 *125:130 1.24283
195 *125:130 *125:135 0.621465
196 *125:151 *125:357 1.40003
197 *125:151 *125:150 2.60999
198 *125:201 *125:222 0.124333
199 *125:213 *125:210 0.124333
200 *125:132 *125:130 1.40003
201 *125:154 *125:151 1.61573
202 *125:220 *669:CK 1.40003
203 *125:220 *125:222 0.248566
204 *125:213 *125:212 1.49139
205 *125:132 *125:131 1.98853
206 *125:131 *125:154 1.40003
207 *125:284 *679:CK 1.40003
208 *125:227 *668:CK 1.40003
209 *125:221 *125:220 0.497131
210 *125:212 *125:219 0.124333
211 *125:131 *125:155 0.745697
212 *125:284 *125:283 0.87003
213 *125:228 *125:227 0.497131
214 *125:215 *125:221 1.40003
215 *125:219 *125:215 0.497131
216 *125:354 *125:155 0.248566
217 *125:193 *841:CK 1.40003
218 *125:209 *125:283 0.248566
219 *125:214 *125:228 1.40003
220 *125:215 *125:214 2.60999
221 *125:169 *842:CK 1.40003
222 *125:354 *125:169 0.621465
223 *125:193 *125:192 0.248566
224 *125:208 *591:CK 1.40003
225 *125:209 *125:208 1.36716
226 *125:214 *125:226 0.372899
227 *125:169 *125:168 2.48576
228 *125:168 *125:192 0.248566
229 *125:186 *833:CK 1.40003
230 *125:208 *125:207 0.248566
231 *125:217 *125:226 0.124333
232 *125:184 *834:CK 1.40003
233 *125:168 *125:184 1.98853
234 *125:186 *125:185 0.372899
235 *125:216 *125:207 1.40003
236 *125:217 *125:216 1.1186
237 *125:184 *125:202 2.48576
238 *125:225 *125:185 1.40003
239 *125:216 *125:225 4.10139
240 *125:224 *125:202 1.40003
241 *125:225 *125:224 0.745697
242 *125:224 *125:223 0.745697
243 *125:276 *847:CK 1.40003
244 *125:271 *840:CK 1.40003
245 *125:218 *125:223 1.40003
246 *125:277 *125:276 0.621465
247 *125:271 *125:270 0.248566
248 *125:89 *831:CK 1.40003
249 *125:218 *125:89 0.621465
250 *125:277 *125:87 0.124333
251 *125:87 *125:270 0.497131
252 *125:376 *830:CK 1.40003
253 *125:89 *125:88 1.86429
254 *125:88 *125:87 1.98853
255 *125:376 *125:183 0.372899
256 *125:378 *823:CK 1.40003
257 *125:257 *125:88 1.40003
258 *125:183 *125:182 1.24283
259 *125:378 *125:231 0.248566
260 *125:257 *125:256 1.49139
261 *125:182 *125:269 0.124333
262 *125:232 *125:231 0.0621163
263 *125:92 *125:256 1.40003
264 *125:269 *125:230 0.87003
265 *125:232 *125:230 0.124333
266 *125:91 *835:CK 1.40003
267 *125:92 *125:91 0.372899
268 *125:230 *125:229 1.61573
269 *125:361 *832:CK 1.40003
270 *125:91 *125:90 0.994263
271 *125:241 *125:229 0.372899
272 *125:254 *827:CK 1.40003
273 *125:360 *125:361 0.372899
274 *125:261 *125:90 1.40003
275 *125:240 *828:CK 1.40003
276 *125:241 *125:240 1.61573
277 *125:255 *125:254 0.372899
278 *125:260 *125:360 1.40003
279 *125:261 *125:260 1.36716
280 *125:240 *125:249 0.248566
281 *125:259 *125:255 1.40003
282 *125:260 *125:259 2.85856
283 *125:258 *125:249 0.124333
284 *125:259 *125:268 1.73996
285 *125:258 *125:102 0.745697
286 *125:102 *125:268 1.40003
287 *125:101 *826:CK 1.40003
288 *125:102 *125:101 3.60425
289 *125:371 *825:CK 1.40003
290 *125:101 *125:287 1.49139
291 *125:370 *824:CK 1.40003
292 *125:371 *125:372 0.248566
293 *125:377 *125:287 1.40003
294 *125:368 *125:370 0.745697
295 *125:373 *125:372 1.40003
296 *125:373 *125:377 1.1186
297 *125:369 *125:368 1.40003
298 *125:369 *125:373 0.87003
299 *125:351 *589:CK 1.40003
300 *125:365 *125:369 0.745697
301 *125:351 *125:352 0.621465
302 *125:365 *125:366 0.124333
303 *125:353 *125:352 1.40003
304 *125:94 *829:CK 1.40003
305 *125:363 *125:366 1.49139
306 *125:348 *125:353 0.994263
307 *125:94 *125:93 0.497131
308 *125:363 *125:364 0.124333
309 *125:347 *125:348 1.40003
310 *125:362 *125:93 1.40003
311 *125:362 *125:364 0.372899
312 *125:349 *577:CK 1.40003
313 *125:347 *125:349 0.745697
314 *125:359 *125:362 0.372899
315 *125:349 *125:350 0.745697
316 *125:291 *125:359 0.124333
317 *125:275 *125:350 0.248566
318 *125:285 *848:CK 1.40003
319 *125:292 *125:291 1.1186
320 *125:275 *125:274 1.73996
321 *125:286 *125:285 0.372899
322 *125:292 *125:358 0.124333
323 *125:274 *125:77 0.124333
324 *125:356 *125:286 1.40003
325 *125:356 *125:358 0.372899
326 *125:76 *584:CK 1.40003
327 *125:77 *125:76 0.621465
328 *125:355 *125:356 0.372899
329 *125:76 *125:75 0.248566
330 *125:295 *125:355 0.124333
331 *125:278 *125:75 1.40003
332 *125:296 *125:295 3.23146
333 *125:74 *125 6.58714294
334 *125:279 *125:278 0.372899
335 *125:296 *125:313 0.124333
336 *125:311 *125:74 1.40003
337 *125:282 *125:279 1.40003
338 *125:314 *125:313 0.372899
339 *125:312 *125:311 0.87003
340 *125:281 *666:CK 1.40003
341 *125:282 *125:281 0.994263
342 *125:293 *125:314 0.124333
343 *125:288 *125:312 1.40003
344 *125:281 *125:280 0.621465
345 *125:294 *125:293 1.61573
346 *125:289 *593:CK 1.40003
347 *125:289 *125:288 0.372899
348 *125:346 *125:280 1.40003
349 *125:294 *125:346 0.124333
350 *125:290 *125:289 0.372899
351 *125:301 *125:346 0.372899
352 *125:301 *125:290 1.40003
353 *125:302 *125:301 1.49139
354 *125:344 *125:302 0.124333
355 *125:73 *665:CK 1.40003
356 *125:308 *125:344 0.248566
357 *125:300 *585:CK 1.40003
358 *125:73 *125:72 1.73996
359 *125:309 *125:308 0.87003
360 *125:300 *125:299 0.372899
361 *125:310 *125:72 1.40003
362 *125:310 *125:309 0.372899
363 *125:297 *125:299 1.40003
364 *125:297 *125:310 2.11286
365 *125:307 *496:CK 1.40003
366 *125:298 *125:297 2.60999
367 *125:307 *125:306 0.372899
368 *125:306 *125:298 1.40003
369 *125:306 *125:305 0.497131
370 *125:329 *493:CK 1.40003
371 *125:317 *125:329 0.193083
372 *125:303 *125:305 1.40003
373 *125:304 *125:329 1.40003
374 *125:304 *125:303 1.49139
375 *125:327 *125:304 0.621465
376 *125:326 *494:CK 1.40003
377 *125:326 *125:327 1.40003
378 *125:315 *125:326 0.193083
*END

*D_NET *126 0.0357918

*CONN
*P *126 I *C 0 45.965 *L 0
*I *822:B I *C 54.955 29.145 *L 0.00175 *D NOR2BXL
*I *811:B0 I *C 56.695 63.655 *L 0.00175 *D AO21X1
*I *747:A I *C 33.205 44.805 *L 0.00273 *D CLKINVX1
*I *735:A I *C 53.215 21.895 *L 0.00162 *D NOR2XL
*I *726:A I *C 49.155 23.925 *L 0.00162 *D NOR2XL
*I *722:A0 I *C 43.645 37.265 *L 0.00257 *D OAI32X1
*I *720:A0 I *C 48.575 32.045 *L 0.00257 *D OAI32X1
*I *718:B0 I *C 43.935 39.585 *L 0.00271 *D OAI32X1
*I *716:A I *C 31.755 37.555 *L 0.00162 *D NOR2XL
*I *708:A I *C 29.725 32.335 *L 0.00162 *D NOR2XL
*I *701:A0 I *C 23.635 32.045 *L 0.00257 *D OAI32X1
*I *699:B0 I *C 17.255 42.775 *L 0.00271 *D OAI32X1
*I *698:A I *C 34.655 65.685 *L 0.00162 *D NOR2XL
*I *696:B0 I *C 17.255 32.335 *L 0.00271 *D OAI32X1
*I *691:A I *C 38.135 68.875 *L 0.00162 *D NOR2XL
*I *688:A I *C 35.815 58.435 *L 0.00162 *D NOR2XL
*I *686:A I *C 37.845 47.995 *L 0.00259 *D NOR3X1
*I *684:B1 I *C 40.165 50.315 *L 0.00174 *D OAI22XL
*I *629:A I *C 35.235 74.095 *L 0.00273 *D CLKINVX1
*I *628:B I *C 36.685 73.805 *L 0.00171 *D NOR2XL
*I *610:A I *C 48.575 21.895 *L 0.00162 *D NOR2XL
*I *609:A I *C 48.285 63.655 *L 0.00162 *D NOR2XL
*I *608:A I *C 36.975 27.115 *L 0.00162 *D NOR2XL
*I *607:A I *C 49.735 50.025 *L 0.00162 *D NOR2XL
*I *606:A I *C 36.975 23.925 *L 0.00162 *D NOR2XL
*I *605:A I *C 50.315 55.245 *L 0.00162 *D NOR2XL
*I *604:A I *C 40.745 21.895 *L 0.00162 *D NOR2XL
*I *603:A I *C 48.285 70.905 *L 0.00162 *D NOR2XL
*I *602:A I *C 44.225 21.895 *L 0.00162 *D NOR2XL
*I *601:A I *C 22.185 58.435 *L 0.00162 *D NOR2XL
*I *600:A I *C 23.925 55.245 *L 0.00162 *D NOR2XL
*I *599:A I *C 21.895 18.705 *L 0.00162 *D NOR2XL
*I *598:A I *C 47.705 65.685 *L 0.00162 *D NOR2XL
*I *597:A I *C 28.565 18.705 *L 0.00162 *D NOR2XL
*I *596:A I *C 28.855 47.995 *L 0.00162 *D NOR2XL
*I *595:A I *C 28.565 55.245 *L 0.00162 *D NOR2XL
*I *594:A I *C 28.275 21.895 *L 0.00162 *D NOR2XL
*I *500:A I *C 19.575 70.905 *L 0.00162 *D NOR2XL
*I *499:A I *C 23.635 70.905 *L 0.00162 *D NOR2XL
*I *498:A I *C 30.015 68.875 *L 0.00162 *D NOR2XL
*I *497:A I *C 30.015 63.655 *L 0.00162 *D NOR2XL
*I *491:A I *C 18.705 65.685 *L 0.00162 *D NOR2XL

*CAP
1 *126 0.000595452
2 *822:B 3.67966e-05
3 *811:B0 3.67966e-05
4 *747:A 3.67966e-05
5 *735:A 3.67966e-05
6 *726:A 3.67966e-05
7 *722:A0 3.67966e-05
8 *720:A0 3.67966e-05
9 *718:B0 3.67966e-05
10 *716:A 3.67966e-05
11 *708:A 3.67966e-05
12 *701:A0 3.67966e-05
13 *699:B0 1.28236e-05
14 *698:A 3.67966e-05
15 *696:B0 3.67966e-05
16 *691:A 3.67966e-05
17 *688:A 3.67966e-05
18 *686:A 3.67966e-05
19 *684:B1 3.67966e-05
20 *629:A 3.67966e-05
21 *628:B 3.67966e-05
22 *610:A 3.67966e-05
23 *609:A 2.56659e-05
24 *608:A 1.28236e-05
25 *607:A 3.67966e-05
26 *606:A 2.58156e-05
27 *605:A 3.67966e-05
28 *604:A 3.67966e-05
29 *603:A 1.28236e-05
30 *602:A 3.67966e-05
31 *601:A 1.28236e-05
32 *600:A 3.67966e-05
33 *599:A 3.67966e-05
34 *598:A 3.67966e-05
35 *597:A 3.67966e-05
36 *596:A 3.67966e-05
37 *595:A 3.84802e-05
38 *594:A 3.67966e-05
39 *500:A 3.67966e-05
40 *499:A 3.67966e-05
41 *498:A 3.67966e-05
42 *497:A 3.67966e-05
43 *491:A 3.67966e-05
44 *126:43 0.00044212
45 *126:44 0.000316531
46 *126:45 8.61829e-05
47 *126:46 0.000194665
48 *126:47 0.000139741
49 *126:48 7.85785e-05
50 *126:49 7.85785e-05
51 *126:50 9.96613e-05
52 *126:51 0.000137533
53 *126:52 0.000210397
54 *126:53 0.000180335
55 *126:54 0.000105367
56 *126:55 0.000166698
57 *126:56 0.000123606
58 *126:57 6.22848e-05
59 *126:58 0.000246614
60 *126:59 0.000245716
61 *126:60 0.000138357
62 *126:61 0.000114599
63 *126:62 0.000228889
64 *126:63 0.000161291
65 *126:64 9.88943e-05
66 *126:65 0.000117826
67 *126:66 0.000119032
68 *126:67 0.000145007
69 *126:68 0.000168727
70 *126:69 0.000141967
71 *126:70 0.000156979
72 *126:71 0.000127881
73 *126:72 0.000127881
74 *126:73 0.000164668
75 *126:74 0.000164668
76 *126:75 0.000103767
77 *126:76 7.24427e-05
78 *126:77 8.56404e-05
79 *126:78 0.000115787
80 *126:79 6.36598e-05
81 *126:80 7.47904e-05
82 *126:81 4.26799e-05
83 *126:82 0.000166024
84 *126:83 0.000166931
85 *126:84 0.00022251
86 *126:85 0.000213334
87 *126:86 0.00034924
88 *126:87 0.000159823
89 *126:88 0.000152864
90 *126:89 0.000152864
91 *126:90 6.71299e-05
92 *126:91 6.71299e-05
93 *126:92 6.56988e-05
94 *126:93 6.66061e-05
95 *126:94 0.000244762
96 *126:95 6.58859e-05
97 *126:96 6.55959e-05
98 *126:97 5.82721e-05
99 *126:98 0.000475446
100 *126:99 0.000436854
101 *126:100 0.000293306
102 *126:101 0.000319215
103 *126:102 0.000283223
104 *126:103 0.000170392
105 *126:104 0.000295635
106 *126:105 0.000373428
107 *126:106 8.54159e-05
108 *126:107 7.09929e-05
109 *126:108 5.40537e-05
110 *126:109 6.84768e-05
111 *126:110 0.000157924
112 *126:111 0.000157924
113 *126:112 0.000283392
114 *126:113 8.24322e-05
115 *126:114 8.34049e-05
116 *126:115 0.000332385
117 *126:116 0.000281876
118 *126:117 0.000233856
119 *126:118 6.39404e-05
120 *126:119 5.07239e-05
121 *126:120 5.93759e-05
122 *126:121 5.93759e-05
123 *126:122 0.000288882
124 *126:123 0.00027792
125 *126:124 4.32785e-05
126 *126:125 7.83166e-05
127 *126:126 7.83166e-05
128 *126:127 0.000235979
129 *126:128 0.00020731
130 *126:129 0.000190287
131 *126:130 0.00026952
132 *126:131 3.62634e-05
133 *126:132 3.55806e-05
134 *126:133 0.000162273
135 *126:134 0.000153902
136 *126:135 0.000153902
137 *126:136 9.66401e-05
138 *126:137 4.673e-05
139 *126:138 0.000271718
140 *126:139 0.000271718
141 *126:140 5.72339e-05
142 *126:141 0.00053268
143 *126:142 0.000114356
144 *126:143 0.000456711
145 *126:144 6.10408e-05
146 *126:145 5.98435e-05
147 *126:146 4.27547e-05
148 *126:147 0.000115225
149 *126:148 0.000106293
150 *126:149 0.000122549
151 *126:150 0.000123457
152 *126:151 9.042e-05
153 *126:152 8.95128e-05
154 *126:153 0.00043909
155 *126:154 0.000299573
156 *126:155 0.000142416
157 *126:156 0.000131744
158 *126:157 9.6107e-05
159 *126:158 0.00061298
160 *126:159 0.000205515
161 *126:160 7.09742e-05
162 *126:161 7.8775e-05
163 *126:162 0.000126347
164 *126:163 0.000127516
165 *126:164 0.000228356
166 *126:165 0.000186471
167 *126:166 7.14793e-05
168 *126:167 7.14793e-05
169 *126:168 0.000380107
170 *126:169 0.000516555
171 *126:170 0.000170261
172 *126:171 0.000124738
173 *126:172 0.000220714
174 *126:173 0.000146466
175 *126:174 0.000178305
176 *126:175 0.000156203
177 *126:176 0.000156203
178 *126:177 0.000265293
179 *126:178 0.000265293
180 *126:179 0.000385354
181 *126:180 0.000385354
182 *126:181 0.000174049
183 *126:182 0.000232527
184 *126:183 0.000190811
185 *126:184 6.11156e-05
186 *126:185 6.11156e-05
187 *126:186 0.00030627
188 *126:187 0.000305391
189 *126:188 0.000438257
190 *126:189 0.000184591
191 *126:194 4.00983e-05
192 *126:195 3.90695e-05
193 *126:196 4.10618e-05
194 *126:197 6.78127e-05
195 *126:198 6.78127e-05
196 *126:199 4.00983e-05
197 *126:200 5.42221e-05
198 *126:201 9.42175e-05
199 *126:202 3.85924e-05
200 *126:203 3.85924e-05
201 *126:204 5.87866e-05
202 *126:205 8.71463e-05
203 *126:206 3.93594e-05
204 *126:207 0.000502637
205 *126:208 3.24472e-05
206 *126:209 0.00035952
207 *126:210 0.000103113
208 *126:211 4.6122e-05
209 *126:212 4.00983e-05
210 *126:213 5.14254e-05
211 *126:214 0.000112896
212 *126:215 8.59491e-05
213 *126:216 8.59491e-05
214 *126:217 0.000325969
215 *126:218 0.00021542
216 *126:219 9.9839e-05
217 *126:220 0.000100746
218 *126:221 0.000209508
219 *126:222 0.000128208
220 *126:223 4.5963e-05
221 *126:224 5.09016e-05
222 *126:225 4.00983e-05
223 *126:226 3.90975e-05
224 *126:227 7.69697e-05
225 *126:228 7.69697e-05
226 *126:229 4.10618e-05
227 *126:230 0.000127329
228 *126:231 3.06607e-05
229 *126:232 3.06607e-05
230 *126:159 *172:6 3.751e-05
231 *126:156 *172:7 3.751e-05
232 *126:156 *172:6 9.579e-05
233 *126:157 *172:7 9.579e-05
234 *126:158 *172:12 0.00013038
235 *126 *172:10 0.00013038
236 *126:158 *172:13 1.427e-05
237 *126 *172:11 1.427e-05
238 *126:158 *172:9 1.459e-05
239 *126 *172 1.459e-05
240 *126:151 *172:4 1.452e-05
241 *126:152 *172:5 1.45200173e-05
242 *126:138 *33:19 2.948e-05
243 *126:139 *33:20 2.948e-05
244 *126:134 *33:12 0.00024705
245 *126:135 *33:13 0.00024705
246 *126:45 *33:27 3.456e-05
247 *126:46 *33:26 3.456e-05
248 *126:46 *33:27 5.417e-05
249 *126:47 *33:26 5.417e-05
250 *126:48 *33:27 3.769e-05
251 *126:49 *33:26 3.769e-05
252 *126:43 *33:25 4.956e-05
253 *126:44 *33:24 4.95600301e-05
254 *126:134 *34:12 0.00032066
255 *126:135 *34:13 0.00032066
256 *126:129 *34:19 0.00021027
257 *126:130 *34:16 0.00021027
258 *126:130 *34:19 0.00012455
259 *126:133 *34:16 0.00012455
260 *126:133 *34:19 8.679e-05
261 *126:136 *34:16 8.679e-05
262 *126:136 *34:19 3.572e-05
263 *126:137 *34:16 3.572e-05
264 *126:131 *34:12 1.25e-05
265 *126:132 *34:13 1.24999845e-05
266 *126:153 *40:8 4.019e-05
267 *126:154 *40:9 4.019e-05
268 *126:153 *40:10 3.746e-05
269 *126:154 *40:11 3.746e-05
270 *126:143 *40:4 6.085e-05
271 *126:141 *40:5 6.08500021e-05
272 *126:71 *228:7 7.537e-05
273 *126:72 *228:6 7.537e-05
274 *126:73 *228:5 3.649e-05
275 *126:74 *228:4 3.64899982e-05
276 *126:69 *319:19 0.0001585
277 *126:70 *319:18 0.000158500001
278 *126:67 *153:15 0.00013469
279 *126:68 *153:16 0.00013469
280 *126:122 *153:5 9.71e-06
281 *126:123 *153:6 9.71e-06
282 *126:127 *153:20 1.092e-05
283 *126:128 *153:19 1.09200092e-05

*RES
1 *126:91 *604:A 1.40005
2 *126:121 *602:A 1.40005
3 *126:91 *126:90 0.248617
4 *126:121 *126:120 0.248617
5 *126:116 *126:90 1.40005
6 *126:115 *126:120 1.40005
7 *126:116 *126:115 1.49138
8 *126:115 *126:114 0.372872
9 *126:114 *126:111 0.124255
10 *126:126 *735:A 1.40005
11 *126:111 *126:110 1.11862
12 *126:126 *126:125 0.248617
13 *126:113 *126:110 0.124255
14 *126:117 *126:125 1.40005
15 *126:231 *822:B 1.40005
16 *126:193 *126:231 0.0643579
17 *126:97 *610:A 1.40005
18 *126:113 *126:112 0.372872
19 *126:112 *126:117 1.98862
20 *126:108 *726:A 1.40005
21 *126:231 *126:232 0.124255
22 *126:97 *126:96 0.248617
23 *126:96 *126:112 1.40005
24 *126:109 *126:108 0.372872
25 *126:138 *126:232 1.40005
26 *126:96 *126:99 0.248617
27 *126:99 *126:109 0.248617
28 *126:139 *126:138 2.73426
29 *126:99 *126:98 2.85862
30 *126:98 *126:139 1.40005
31 *126:141 *720:A0 1.40005
32 *126:98 *126:141 0.994255
33 *126:141 *126:143 4.72287
34 *126:227 *126:143 1.40005
35 *126:194 *699:B0 0.193286
36 *126 *126:158 6.96000004
37 *126:227 *126:228 0.497128
38 *126:195 *126:194 1.40005
39 *126:155 *126:158 1.40005
40 *126:154 *126:228 1.40005
41 *126:43 *126:195 0.124255
42 *126:43 *126:155 1.36713
43 *126:153 *607:A 1.40005
44 *126:154 *126:153 2.98287
45 *126:44 *126:43 2.73426
46 *126:153 *126:165 1.36713
47 *126:107 *599:A 1.40005
48 *126:44 *126:48 0.124255
49 *126:165 *126:171 0.248617
50 *126:107 *126:106 0.87
51 *126:49 *126:48 0.87
52 *126:105 *605:A 1.40005
53 *126:171 *126:105 0.87
54 *126:106 *126:197 0.248617
55 *126:144 *701:A0 1.40005
56 *126:49 *126:45 0.124255
57 *126:105 *126:104 1.98862
58 *126:197 *126:198 0.497128
59 *126:145 *126:144 0.372872
60 *126:46 *696:B0 1.40005
61 *126:46 *126:45 0.87
62 *126:229 *126:104 1.40005
63 *126:198 *126:200 0.248617
64 *126:203 *126:145 0.124255
65 *126:47 *126:46 1.74
66 *126:229 *126:230 0.124255
67 *126:200 *126:201 0.248617
68 *126:202 *126:203 0.248617
69 *126:137 *126:47 1.40005
70 *126:222 *126:230 1.11862
71 *126:176 *811:B0 1.40005
72 *126:211 *606:A 0.386678
73 *126:66 *597:A 1.40005
74 *126:201 *126:128 0.745745
75 *126:142 *126:202 0.124255
76 *126:137 *126:136 0.372872
77 *126:223 *609:A 0.386678
78 *126:103 *126:222 1.40005
79 *126:176 *126:175 1.36713
80 *126:83 *126:211 1.40005
81 *126:66 *126:65 0.994255
82 *126:128 *126:127 1.74
83 *126:127 *126:142 0.994255
84 *126:136 *126:133 0.87
85 *126:102 *126:223 1.40005
86 *126:103 *126:102 1.49138
87 *126:179 *126:175 1.40005
88 *126:225 *603:A 0.193286
89 *126:83 *126:82 1.11862
90 *126:119 *126:65 0.124255
91 *126:130 *126:127 1.40005
92 *126:133 *126:130 1.24287
93 *126:183 *598:A 1.40005
94 *126:102 *126:183 0.87
95 *126:180 *126:179 3.85287
96 *126:226 *126:225 1.40005
97 *126:212 *608:A 0.193286
98 *126:82 *126:81 0.124255
99 *126:118 *594:A 1.40005
100 *126:119 *126:118 0.372872
101 *126:130 *126:129 2.11287
102 *126:183 *126:101 0.372872
103 *126:101 *126:180 1.40005
104 *126:224 *126:226 0.124255
105 *126:80 *126:212 1.40005
106 *126:81 *126:80 0.248617
107 *126:118 *126:124 0.248617
108 *126:132 *126:129 0.124255
109 *126:53 *491:A 1.40005
110 *126:213 *628:B 1.40005
111 *126:101 *126:100 1.49138
112 *126:100 *126:224 0.372872
113 *126:80 *126:79 0.621383
114 *126:124 *126:123 0.124255
115 *126:132 *126:131 0.248617
116 *126:53 *126:52 1.86426
117 *126:50 *500:A 1.40005
118 *126:213 *126:214 0.372872
119 *126:186 *126:100 1.40005
120 *126:134 *126:79 1.40005
121 *126:123 *126:122 2.36138
122 *126:122 *126:131 1.40005
123 *126:52 *126:51 0.372872
124 *126:51 *126:50 0.372872
125 *126:210 *126:214 0.621383
126 *126:215 *691:A 1.40005
127 *126:187 *126:186 2.11287
128 *126:135 *126:134 3.23138
129 *126:122 *126:140 0.248617
130 *126:184 *499:A 1.40005
131 *126:196 *126:51 1.40005
132 *126:84 *629:A 1.40005
133 *126:84 *126:210 0.248617
134 *126:215 *126:216 0.621383
135 *126:187 *126:218 0.124255
136 *126:68 *126:135 1.40005
137 *126:140 *126:68 0.248617
138 *126:185 *126:184 0.248617
139 *126:196 *126:189 0.124255
140 *126:85 *126:84 1.61574
141 *126:217 *126:216 1.40005
142 *126:217 *126:218 1.98862
143 *126:93 *722:A0 1.40005
144 *126:68 *126:67 1.61574
145 *126:206 *708:A 1.40005
146 *126:188 *126:185 1.40005
147 *126:189 *126:188 1.74
148 *126:209 *126:85 1.40005
149 *126:209 *126:217 1.24287
150 *126:93 *126:92 0.497128
151 *126:67 *126:70 0.124255
152 *126:70 *126:206 0.124255
153 *126:188 *126:207 2.73426
154 *126:207 *126:209 2.23713
155 *126:92 *126:95 0.124255
156 *126:70 *126:69 2.23713
157 *126:208 *716:A 1.40005
158 *126:191 *126:208 0.193074
159 *126:64 *126:207 1.40005
160 *126:94 *718:B0 1.40005
161 *126:95 *126:94 0.497128
162 *126:148 *126:69 1.40005
163 *126:146 *126:208 1.40005
164 *126:62 *498:A 1.40005
165 *126:62 *126:64 0.621383
166 *126:94 *126:221 1.98862
167 *126:148 *126:147 0.745745
168 *126:147 *126:146 0.248617
169 *126:163 *497:A 1.40005
170 *126:63 *126:62 0.87
171 *126:219 *126:221 0.124255
172 *126:150 *126:147 1.40005
173 *126:163 *126:162 0.87
174 *126:63 *126:160 0.124255
175 *126:88 *684:B1 1.40005
176 *126:219 *126:220 0.994255
177 *126:150 *126:149 1.11862
178 *126:162 *126:161 0.124255
179 *126:161 *126:160 0.497128
180 *126:166 *686:A 1.40005
181 *126:89 *126:88 1.74
182 *126:181 *126:220 1.40005
183 *126:149 *126:74 0.124255
184 *126:178 *126:161 1.40005
185 *126:72 *747:A 1.40005
186 *126:167 *126:166 0.621383
187 *126:182 *126:89 1.40005
188 *126:182 *126:181 1.49138
189 *126:74 *126:73 1.74
190 *126:178 *126:177 1.86426
191 *126:72 *126:71 0.745745
192 *126:164 *126:167 1.40005
193 *126:164 *126:182 0.994255
194 *126:152 *126:73 0.124255
195 *126:77 *698:A 1.40005
196 *126:77 *126:177 1.40005
197 *126:192 *126:77 0.193074
198 *126:159 *126:71 1.40005
199 *126:159 *126:164 1.98862
200 *126:152 *126:151 0.994255
201 *126:78 *126:77 0.497128
202 *126:156 *126:159 0.87
203 *126:156 *126:151 1.40005
204 *601:A *126:199 0.193286
205 *126:78 *126:75 0.372872
206 *126:157 *126:156 0.994255
207 *126:54 *126:199 1.40005
208 *126:76 *126:75 0.745745
209 *126:61 *126:157 1.40005
210 *126:55 *126:54 0.994255
211 *126:76 *126:172 0.124255
212 *126:60 *596:A 1.40005
213 *126:61 *126:60 0.621383
214 *126:55 *126:56 0.621383
215 *126:86 *688:A 1.40005
216 *126:86 *126:172 1.86426
217 *126:60 *126:205 0.497128
218 *126:57 *600:A 1.40005
219 *126:57 *126:56 0.372872
220 *126:87 *126:86 1.36713
221 *126:174 *126:205 0.372872
222 *126:170 *126:57 1.40005
223 *126:168 *126:87 1.40005
224 *126:174 *126:173 1.11862
225 *126:204 *595:A 0.579965
226 *126:170 *126:169 1.61574
227 *126:169 *126:168 3.48
228 *126:59 *126:173 0.124255
229 *126:58 *126:204 1.40005
230 *126:58 *126:169 1.40005
231 *126:59 *126:58 1.49138
232 *126:190 *126:58 0.193074
*END

*D_NET *128 0.00286502

*CONN
*P *128 I *C 0 52.635 *L 0
*I *615:B I *C 29.15 52.585 *L 0.00164 *D MXI2XL

*CAP
1 *128 4.99429e-05
2 *615:B 3.68009e-05
3 *128:2 0.000250366
4 *128:3 0.000249497
5 *128:4 0.00106246
6 *128:5 0.00109575
7 *128:6 6.01087e-05
8 *128:7 6.01087e-05

*RES
1 *128:6 *615:B 1.39996
2 *128:6 *128:7 0.248543
3 *128:2 *128:7 1.39996
4 *128:3 *128:2 1.9885
5 *128:3 *128:4 0.12435
6 *128:5 *128:4 10.3157139
7 *128 *128:5 0.372893
*END

*D_NET *129 0.00286387

*CONN
*P *129 I *C 46.255 90.19 *L 0
*I *626:B I *C 46.26 63.025 *L 0.00164 *D MXI2XL

*CAP
1 *129 0.000876422
2 *626:B 3.68027e-05
3 *129:2 0.000416035
4 *129:3 0.000430538
5 *129:4 0.00090774
6 *129:5 9.81775e-05
7 *129:6 9.81775e-05

*RES
1 *129:4 *129 7.58142853
2 *129:4 *129:6 0.248604
3 *129:5 *129:6 0.745695
4 *129:3 *129:5 0.248604
5 *129:2 *129:3 3.10714
6 *626:B *129:2 1.4
*END

*D_NET *130 0.00298635

*CONN
*P *130 I *C 45.965 90.19 *L 0
*I *624:B I *C 45.67 57.805 *L 0.00164 *D MXI2XL

*CAP
1 *130 0.00115904
2 *624:B 3.67947e-05
3 *130:2 0.000154696
4 *130:3 0.000154696
5 *130:4 0.00117569
6 *130:8 3.38167e-05
7 *130:9 3.38167e-05
8 *130:10 3.38167e-05
9 *130:11 0.000102455
10 *130:12 0.000101558

*RES
1 *130:4 *130 11.8071432
2 *130:12 *130:4 0.124312
3 *130:11 *130:12 0.870006
4 *130:3 *624:B 1.40004
5 *130:7 *130:10 0.193134
6 *130:10 *130:11 1.40004
7 *130:3 *130:2 0.994318
8 *130:6 *130:9 0.193134
9 *130:9 *130:10 1.40004
10 *130:8 *130:2 1.40004
11 *130:8 *130:9 1.40004
12 *130:5 *130:8 0.193134
*END

*D_NET *131 0.00233169

*CONN
*P *131 I *C 45.385 90.19 *L 0
*I *627:B I *C 47.13 71.535 *L 0.00164 *D MXI2XL

*CAP
1 *131 4.29034e-05
2 *627:B 3.67998e-05
3 *131:2 0.000275703
4 *131:3 0.000261208
5 *131:4 0.000614384
6 *131:5 0.00061444
7 *131:6 8.06502e-05
8 *131:7 9.50795e-05
9 *131:10 9.12542e-05
10 *131:11 3.37996e-05
11 *131:12 3.37996e-05
12 *131:13 6.04267e-05
13 *131:14 9.12542e-05

*RES
1 *131:3 *627:B 1.40001
2 *131:3 *131:2 1.24287
3 *131:2 *131:5 0.248592
4 *131:5 *131:4 5.84142876
5 *131:7 *131:4 0.248592
6 *131:7 *131:6 0.372844
7 *131:14 *131:6 1.40001
8 *131:13 *131 0.372844
9 *131:10 *131:14 0.745688
10 *131:9 *131:12 0.193062
11 *131:12 *131:13 1.40001
12 *131:11 *131:10 1.40001
13 *131:11 *131:12 1.40001
14 *131:8 *131:11 0.193062
*END

*D_NET *132 0.0032457

*CONN
*P *132 I *C 45.385 90.19 *L 0
*I *618:B I *C 45.67 66.315 *L 0.00164 *D MXI2XL

*CAP
1 *132 0.00141641
2 *618:B 3.6799e-05
3 *132:7 2.94798e-05
4 *132:8 3.37945e-05
5 *132:9 0.000119275
6 *132:10 0.00148043
7 *132:11 3.24391e-05
8 *132:12 3.37945e-05
9 *132:13 3.37945e-05
10 *132:14 2.94798e-05

*RES
1 *132:11 *618:B 1.39999998
2 *132:3 *132:11 0.193051
3 *132:12 *132:11 1.39999998
4 *132:4 *132:12 0.193051
5 *132:13 *132:12 1.39999998
6 *132:5 *132:13 0.193051
7 *132:14 *132:13 1.39999998
8 *132:6 *132:14 0.18284
9 *132:10 *132 1.07704
10 *132:7 *132:14 0.124286
11 *132:9 *132:10 0.35
12 *132:8 *132:7 1.39999998
13 *132:8 *132:9 1.39999998
14 *132:2 *132:8 0.193051
*END

*D_NET *133 0.00220155

*CONN
*P *133 I *C 0 57.855 *L 0
*I *620:B I *C 24.22 57.805 *L 0.00164 *D MXI2XL

*CAP
1 *133 0.000505238
2 *620:B 3.67995e-05
3 *133:2 0.000111051
4 *133:3 0.000111051
5 *133:4 0.00052189
6 *133:5 0.000418253
7 *133:6 3.90691e-05
8 *133:7 0.000419137
9 *133:8 3.90691e-05

*RES
1 *133:8 *620:B 1.4
2 *133:6 *133:8 0.124278
3 *133:7 *133:6 1.4
4 *133:5 *133:7 3.60431
5 *133:2 *133:5 0.124278
6 *133:3 *133:2 1.11858
7 *133:3 *133:4 0.124278
8 *133 *133:4 5.34428549
*END

*D_NET *134 0.0024086

*CONN
*P *134 I *C 0 55.825 *L 0
*I *617:B I *C 26.25 55.875 *L 0.00164 *D MXI2XL

*CAP
1 *134 1.2599e-05
2 *617:B 3.67993e-05
3 *134:2 0.000350777
4 *134:3 0.000350777
5 *134:5 2.92526e-05
6 *134:6 0.00059444
7 *134:7 0.00059444
8 *134:8 0.000135841
9 *134:9 0.000135841
10 *134:10 6.72492e-05
11 *134:11 3.24545e-05
12 *134:12 6.81291e-05

*RES
1 *134 *134:5 0.124312
2 *134:5 *134:6 0.124312
3 *134:6 *134:7 5.71714306
4 *134:7 *134:8 0.124312
5 *134:8 *134:9 1.24286
6 *134:3 *134:9 0.124312
7 *134:3 *134:2 3.47996
8 *134:10 *134:2 0.124312
9 *134:10 *134:12 0.497162
10 *134:11 *617:B 1.39997
11 *134:11 *134:12 1.39997
12 *134:4 *134:11 0.193055
*END

*D_NET *135 0.00157273

*CONN
*P *135 I *C 0 19.285 *L 0
*I *616:B I *C 18.7 19.335 *L 0.00164 *D MXI2XL

*CAP
1 *135 0.000742975
2 *616:B 3.67983e-05
3 *135:3 3.24466e-05
4 *135:4 0.00076051

*RES
1 *135 *135:4 7.82999992
2 *135:3 *616:B 1.40002
3 *135:3 *135:4 1.40002
4 *135:2 *135:3 0.193074
*END

*D_NET *136 0.0020045

*CONN
*P *136 I *C 30.305 0 *L 0
*I *611:B I *C 30.31 21.265 *L 0.00164 *D MXI2XL

*CAP
1 *136 4.14707e-05
2 *611:B 3.68037e-05
3 *136:2 0.000323458
4 *136:3 0.000322264
5 *136:4 0.0006117
6 *136:5 0.0006117
7 *136:6 5.71051e-05

*RES
1 *136:2 *611:B 1.40002
2 *136:3 *136:2 2.48568
3 *136:5 *136:3 0.124242
4 *136 *136:6 0.372819
5 *136:4 *136:5 6.09000015
6 *136:4 *136:6 0.124242
*END

*D_NET *137 0.00187365

*CONN
*P *137 I *C 32.045 0 *L 0
*I *614:B I *C 30.89 19.335 *L 0.00164 *D MXI2XL

*CAP
1 *137 6.25192e-05
2 *614:B 3.67927e-05
3 *137:2 0.000164196
4 *137:3 0.000164196
5 *137:4 5.82945e-05
6 *137:5 5.70965e-05
7 *137:6 0.000641828
8 *137:7 0.00068872

*RES
1 *137:4 *614:B 1.39996
2 *137:5 *137:4 0.372842
3 *137:5 *137:2 0.124312
4 *137:3 *137:2 1.49146
5 *137:6 *137:3 0.124312
6 *137:7 *137:6 6.21428585
7 *137:7 *137 0.497154
*END

*D_NET *138 0.00288846

*CONN
*P *138 I *C 0 45.385 *L 0
*I *612:B I *C 28.56 45.435 *L 0.00164 *D MXI2XL

*CAP
1 *138 4.19965e-05
2 *612:B 3.6804e-05
3 *138:3 0.00061093
4 *138:4 5.86086e-05
5 *138:5 0.00061093
6 *138:6 0.000455846
7 *138:7 0.000233223
8 *138:8 0.000455846
9 *138:9 0.000233465
10 *138:10 5.88417e-05
11 *138:11 3.24506e-05
12 *138:12 5.95222e-05

*RES
1 *138 *138:4 0.372844
2 *138:3 *138:4 0.124252
3 *138:3 *138:5 5.84142876
4 *138:5 *138:6 0.124252
5 *138:6 *138:8 3.48002
6 *138:7 *138:8 0.124252
7 *138:7 *138:9 1.98856
8 *138:9 *138:10 0.124252
9 *138:10 *138:12 0.372844
10 *138:11 *612:B 1.40001
11 *138:11 *138:12 1.40001
12 *138:2 *138:11 0.0300379
*END

*D_NET *139 0.00198425

*CONN
*P *139 I *C 43.355 0 *L 0
*I *619:B I *C 42.77 21.265 *L 0.00164 *D MXI2XL

*CAP
1 *139 0.000873504
2 *619:B 3.6805e-05
3 *139:5 3.24542e-05
4 *139:6 3.38003e-05
5 *139:7 3.38003e-05
6 *139:8 4.14278e-05
7 *139:9 4.14278e-05
8 *139:10 0.00089103

*RES
1 *139 *139:10 8.94857121
2 *139:9 *139:10 1.39999
3 *139:8 *139:9 0.248511
4 *139:4 *139:7 0.193074
5 *139:7 *139:8 1.39999
6 *139:3 *139:6 0.193074
7 *139:6 *139:7 1.39999
8 *139:5 *619:B 1.39999
9 *139:5 *139:6 1.39999
10 *139:2 *139:5 0.193074
*END

*D_NET *140 0.00261204

*CONN
*P *140 I *C 35.815 0 *L 0
*I *623:B I *C 35.82 26.485 *L 0.00164 *D MXI2XL

*CAP
1 *140 0.000625067
2 *623:B 3.67986e-05
3 *140:2 0.000257922
4 *140:3 0.00025672
5 *140:4 9.57017e-05
6 *140:5 9.57017e-05
7 *140:6 0.0006407
8 *140:7 0.000142697
9 *140:8 0.000142697
10 *140:9 0.000159014
11 *140:10 0.000159014

*RES
1 *140 *140:6 5.84142876
2 *140:6 *140:9 0.124252
3 *140:2 *623:B 1.40001
4 *140:9 *140:10 1.36712
5 *140:3 *140:2 1.49146
6 *140:7 *140:10 0.124252
7 *140:5 *140:3 0.124252
8 *140:7 *140:8 1.49146
9 *140:4 *140:5 0.99428
10 *140:4 *140:8 0.124252
*END

*D_NET *141 0.00424993

*CONN
*P *141 I *C 46.835 90.19 *L 0
*I *625:B I *C 48.58 50.655 *L 0.00164 *D MXI2XL

*CAP
1 *141 0.000930326
2 *625:B 3.67962e-05
3 *141:2 0.000947149063
4 *141:3 0.000103451
5 *141:4 0.000103451
6 *141:5 6.06285e-05
7 *141:6 6.06285e-05
8 *141:7 7.49799e-05
9 *141:8 7.49799e-05
10 *141:9 0.00079203
11 *141:10 0.00079203
12 *141:10 *164:22 0.00013673
13 *141:9 *164:23 0.000136730001

*RES
1 *141:4 *625:B 1.39999
2 *141:4 *141:3 0.497158
3 *141:7 *141:3 1.39999
4 *141:8 *141:7 0.497158
5 *141:9 *141:8 1.39999
6 *141:9 *141:10 8.94857121
7 *141:5 *141:10 1.39999
8 *141:6 *141:5 0.248511
9 *141:2 *141:6 1.39999
10 *141:2 *141 7.33284
*END

*D_NET *142 0.00222649

*CONN
*P *142 I *C 34.365 0 *L 0
*I *613:B I *C 34.36 24.555 *L 0.00164 *D MXI2XL

*CAP
1 *142 0.000489861
2 *613:B 3.6799e-05
3 *142:2 0.000392363
4 *142:3 0.000392363
5 *142:4 0.000122491
6 *142:5 0.000123691
7 *142:6 6.44699e-05
8 *142:7 6.32699e-05
9 *142:9 3.38028e-05
10 *142:10 0.00050739

*RES
1 *142:6 *613:B 1.39997
2 *142:7 *142:6 0.621413
3 *142:7 *142:2 0.124252
4 *142:3 *142:2 3.47998
5 *142:4 *142:3 0.124252
6 *142:5 *142:4 1.11858
7 *142 *142:10 5.09571409
8 *142:9 *142:5 1.39997
9 *142:9 *142:10 1.39997
10 *142:8 *142:9 0.193064
*END

*D_NET *143 0.00200413

*CONN
*P *143 I *C 38.715 0 *L 0
*I *622:B I *C 38.71 21.265 *L 0.00164 *D MXI2XL

*CAP
1 *143 0.000573517
2 *622:B 3.68045e-05
3 *143:2 0.00058915
4 *143:3 9.17954e-05
5 *143:4 9.3e-05
6 *143:5 0.000309925
7 *143:6 0.000309925

*RES
1 *143:4 *622:B 1.4
2 *143:3 *143:4 0.621391
3 *143:3 *143:6 0.124278
4 *143:5 *143:6 2.98284
5 *143:2 *143:5 0.124278
6 *143 *143:2 5.34428549
*END

*D_NET *144 0.00210629

*CONN
*P *144 I *C 47.705 0 *L 0
*I *621:B I *C 46.25 21.265 *L 0.00164 *D MXI2XL

*CAP
1 *144 7.81547e-05
2 *621:B 3.67983e-05
3 *144:2 0.0008391
4 *144:3 0.000776579
5 *144:4 7.24314e-05
6 *144:5 7.36349e-05
7 *144:6 0.000114786
8 *144:7 0.000114786

*RES
1 *144:5 *621:B 1.39997
2 *144:4 *144:5 0.372819
3 *144:4 *144:7 0.12431
4 *144:6 *144:7 1.24288
5 *144:3 *144:6 0.12431
6 *144:2 *144:3 7.33285713
7 *144:2 *144 0.62144
*END

*D_NET *145 0.00448648

*CONN
*P *145 O *C 0 49.445 *L 0.05
*I *686:B I *C 37.555 47.995 *L 0.00272 *D NOR3X1
*I *683:A1 I *C 34.655 48.285 *L 0.00273 *D AOI32X1
*I *669:Q O *C 31.755 53.505 *L 0 *D DFFQX1
*I *510:A0 I *C 34.075 50.025 *L 0.00271 *D OAI21X1
*I *509:A0 I *C 31.7 48.0075 *L 0.00263 *D AOI211X1

*CAP
1 *145 0.00059978
2 *686:B 3.68044e-05
3 *683:A1 3.68044e-05
4 *669:Q 3.68044e-05
5 *510:A0 2.56586e-05
6 *509:A0 3.68044e-05
7 *145:6 0.000125829
8 *145:7 7.21226e-05
9 *145:8 8.61747e-05
10 *145:9 0.000575561
11 *145:10 0.000503607
12 *145:11 0.000172236
13 *145:12 0.000188414
14 *145:13 5.75721e-05
15 *145:14 5.75721e-05
16 *145:15 0.000254508
17 *145:16 0.000254508
18 *145:17 8.06441e-05
19 *145:18 0.000149719
20 *145:19 0.000101534
21 *145:20 0.0006164
22 *145:21 0.000129159
23 *145:22 4.59561e-05
24 *145:21 *191:3 8.56e-06
25 *145:9 *191:4 8.56e-06
26 *145:8 *191:5 4.979e-05
27 *145:6 *191:6 4.979e-05
28 *145:6 *191:5 6.281e-05
29 *145:7 *191:6 6.28099966e-05

*RES
1 *145:14 *686:B 1.40001
2 *510:A0 *145:22 0.386682
3 *145:14 *145:13 0.497135
4 *145:19 *683:A1 1.40001
5 *145:17 *145:22 1.40001
6 *145:11 *145:13 1.40001
7 *145:19 *145:18 0.497135
8 *145:18 *145:17 0.372851
9 *145:12 *145:11 1.24284
10 *145:7 *509:A0 1.40001
11 *145:8 *669:Q 1.40001
12 *145:21 *145:18 1.40001
13 *145:12 *145:21 0.248568
14 *145:7 *145:6 0.621419
15 *145:6 *145:8 1.11855
16 *145:9 *145:21 1.24284
17 *145:9 *145:6 1.40001
18 *145:10 *145:9 4.72288
19 *145:10 *145:15 0.124284
20 *145:16 *145:15 2.36139
21 *145:20 *145:16 0.124284
22 *145 *145:20 6.33857155
*END

*D_NET *146 0.00542399

*CONN
*P *146 O *C 39.875 90.19 *L 0.05
*I *687:A I *C 37.845 50.315 *L 0.00157 *D NAND2XL
*I *684:A0 I *C 39.295 50.315 *L 0.00154 *D OAI22XL
*I *683:B1 I *C 35.815 47.995 *L 0.00284 *D AOI32X1
*I *668:Q O *C 37.845 53.505 *L 0 *D DFFQX1
*I *516:B0 I *C 41.905 60.465 *L 0.00274 *D AOI221X1
*I *513:B0 I *C 40.455 58.145 *L 0.00274 *D OAI221X1

*CAP
1 *146 2.66636e-05
2 *687:A 3.68015e-05
3 *684:A0 3.68015e-05
4 *683:B1 3.68015e-05
5 *668:Q 3.68015e-05
6 *516:B0 3.68015e-05
7 *513:B0 3.68015e-05
8 *146:7 0.000230889
9 *146:8 0.000230889
10 *146:9 9.5352e-05
11 *146:10 9.5352e-05
12 *146:11 0.000363769
13 *146:12 0.000363769
14 *146:13 0.000421567344
15 *146:14 0.00013611
16 *146:15 0.000138773
17 *146:16 7.73018e-05
18 *146:17 7.86205e-05
19 *146:18 7.86205e-05
20 *146:19 0.000116368
21 *146:20 0.000117538
22 *146:21 7.21878e-05
23 *146:22 0.000121855
24 *146:23 9.19684e-05
25 *146:24 9.19684e-05
26 *146:26 0.000113203
27 *146:27 0.000162857
28 *146:28 0.000414813
29 *146:29 0.000414781
30 *146:30 3.45372e-05
31 *146:31 3.45372e-05
32 *146:32 4.22886e-05
33 *146:33 6.23586e-05
34 *146:34 0.00027072
35 *146:15 *190:5 1.256e-05
36 *146:16 *190:6 1.256e-05
37 *146:13 *190:7 0.00012299
38 *146:14 *190:8 0.000122990007
39 *146:11 *148:7 3.636e-05
40 *146:12 *148:8 3.636e-05
41 *146:11 *148:9 3.746e-05
42 *146:12 *148:10 3.746e-05
43 *146 *148 1.481e-05
44 *146:32 *148:11 1.481e-05
45 *146:31 *148:7 5.93e-06
46 *146:30 *148:8 5.93e-06
47 *146:29 *148 0.00012165
48 *146:28 *148:11 0.000121649999

*RES
1 *146:32 *146 0.372832
2 *146:29 *146:32 0.124252
3 *146:28 *146:29 5.09571409
4 *146:28 *146:31 0.124252
5 *146:30 *146:31 0.248581
6 *146:30 *146:11 0.124252
7 *146:16 *516:B0 1.39997
8 *146:12 *146:11 3.60431
9 *146:16 *146:15 0.372832
10 *146:12 *146:34 0.124252
11 *146:13 *146:15 0.621413
12 *146:13 *146:34 2.73431
13 *146:14 *513:B0 1.39997
14 *146:14 *146:13 1.49141
15 *146:33 *146:14 0.497162
16 *146:33 *146:17 0.124252
17 *146:18 *146:17 0.994324
18 *146:19 *146:18 0.124252
19 *146:8 *683:B1 1.39997
20 *146:24 *684:A0 1.39997
21 *146:20 *146:19 0.994324
22 *146:8 *146:7 1.86432
23 *146:24 *146:23 0.869994
24 *146:21 *146:20 1.39997
25 *146:26 *146:7 1.39997
26 *146:22 *146:23 1.39997
27 *146:22 *146:21 0.497162
28 *146:10 *687:A 1.39997
29 *146:26 *146:27 0.869994
30 *146:27 *146:22 0.621413
31 *146:10 *146:9 0.869994
32 *146:9 *146:27 1.39997
33 *146:9 *668:Q 1.39997
34 *146:25 *146:9 0.193064
*END

*D_NET *147 0.00478516

*CONN
*I *652:A I *C 30.595 55.535 *L 0.00172 *D CLKBUFX2
*P *147 O *C 36.975 90.19 *L 0.05
*I *667:Q O *C 31.465 54.955 *L 0 *D DFFQXL
*I *516:A0 I *C 40.455 60.465 *L 0.00263 *D AOI221X1
*I *513:A0 I *C 39.005 58.145 *L 0.00262 *D OAI221X1

*CAP
1 *652:A 3.68029e-05
2 *147 0.000510682
3 *667:Q 3.68029e-05
4 *516:A0 6.56953e-05
5 *513:A0 3.68029e-05
6 *147:5 0.000193955
7 *147:6 8.44986e-05
8 *147:7 0.000583611
9 *147:8 0.000693068125
10 *147:9 4.78966e-05
11 *147:10 4.78966e-05
12 *147:11 0.00037026
13 *147:12 0.000401945
14 *147:13 6.54943e-05
15 *147:14 0.000102043
16 *147:15 0.000102043
17 *147:16 0.000527508
18 *147:19 3.24458e-05
19 *147:20 8.60003e-05
20 *147:14 *149:19 2.17e-06
21 *147:15 *149:18 2.17e-06
22 *147:7 *149:7 6.281e-05
23 *147:8 *149:8 6.281e-05
24 *147:7 *149:8 0.00022291
25 *147:8 *149:11 0.00022291
26 *147 *149 9.198e-05
27 *147:16 *149:17 9.19799819e-05

*RES
1 *147:16 *147 6.21429
2 *147:15 *147:16 1.40001
3 *147:15 *147:14 0.869987
4 *147:20 *516:A0 0.966706
5 *147:7 *147:14 1.40001
6 *147:8 *147:20 1.40001
7 *147:8 *147:7 6.33857155
8 *147:5 *513:A0 1.40001
9 *147:5 *147:8 0.994271
10 *147:6 *147:5 0.994271
11 *147:11 *147:6 1.40001
12 *147:18 *147:19 0.193051
13 *147:19 *667:Q 1.40001
14 *147:12 *147:11 3.23148
15 *147:12 *147:19 1.40001
16 *147:13 *147:12 0.372851
17 *147:9 *147:13 1.40001
18 *147:10 *652:A 1.40001
19 *147:10 *147:9 0.124284
20 *147:17 *147:10 0.0643181
*END

*D_NET *148 0.00359225

*CONN
*I *654:A I *C 44.225 63.365 *L 0.00172 *D CLKBUFX2
*P *148 O *C 40.455 90.19 *L 0.05
*I *666:Q O *C 44.805 70.615 *L 0 *D DFFHQX1
*I *535:A I *C 45.105 71.1325 *L 0.00163 *D INVXL
*I *523:B0 I *C 42.485 63.655 *L 0.00262 *D OAI22X1

*CAP
1 *654:A 3.67981e-05
2 *148 0.000413702
3 *666:Q 4.96187e-05
4 *535:A 1.28206e-05
5 *523:B0 3.67981e-05
6 *148:5 0.000144109
7 *148:6 0.000145277
8 *148:7 0.000176317
9 *148:8 0.000176317
10 *148:9 5.7489e-05
11 *148:10 4.29979e-05
12 *148:11 0.00044502
13 *148:12 0.000147668
14 *148:13 0.000147668
15 *148:14 0.000148693
16 *148:15 0.000138548
17 *148:16 0.000175061
18 *148:17 0.000173893
19 *148:21 3.24521e-05
20 *148:22 3.24521e-05
21 *148:23 4.39486e-05
22 *148:23 *125:293 7.92e-06
23 *148:14 *125:294 7.92e-06
24 *148:14 *125:301 2.82e-05
25 *148:15 *125:302 2.82e-05
26 *148:5 *125:274 5.663e-05
27 *148:6 *125:275 5.663e-05
28 *148:16 *125:281 9.834e-05
29 *148:17 *125:282 9.83399968e-05
30 *148:7 *146:11 3.636e-05
31 *148:8 *146:12 3.636e-05
32 *148:9 *146:11 3.746e-05
33 *148:10 *146:12 3.746e-05
34 *148 *146 1.481e-05
35 *148:11 *146:32 1.481e-05
36 *148:7 *146:31 5.93e-06
37 *148:8 *146:30 5.93e-06
38 *148 *146:29 0.00012165
39 *148:11 *146:28 0.000121649999

*RES
1 *148:11 *148 5.46857166
2 *148:11 *148:7 0.248579
3 *148:8 *148:7 1.8643
4 *666:Q *535:A 0.193339
5 *148:9 *148:8 0.248579
6 *148:10 *148:9 0.372827
7 *148:20 *148:22 0.193089
8 *148:22 *666:Q 1.40002
9 *148:15 *148:10 1.40002
10 *148:23 *148:22 1.40002
11 *148:15 *148:14 1.49139
12 *148:14 *148:23 0.372827
13 *148:16 *148:14 1.40002
14 *148:17 *148:16 1.8643
15 *148:17 *148:5 0.124248
16 *148:6 *654:A 1.40002
17 *148:19 *148:6 0.193089
18 *148:6 *148:5 1.73997
19 *148:12 *148:6 1.40002
20 *148:13 *148:12 0.745737
21 *148:21 *523:B0 1.40002
22 *148:21 *148:13 1.40002
23 *148:18 *148:21 0.193089
*END

*D_NET *149 0.00564225

*CONN
*I *662:A I *C 58.435 73.805 *L 0.00184 *D DLY1X4
*P *149 O *C 37.845 90.19 *L 0.05
*I *665:Q O *C 36.975 69.165 *L 0 *D DFFQX1
*I *548:A I *C 40.465 68.6475 *L 0.00163 *D INVXL
*I *523:A0 I *C 41.325 63.365 *L 0.00264 *D OAI22X1

*CAP
1 *662:A 3.68043e-05
2 *149 0.000292638
3 *665:Q 2.5658e-05
4 *548:A 3.68043e-05
5 *523:A0 3.68043e-05
6 *149:5 0.000300282
7 *149:6 0.000300282
8 *149:7 0.000299764
9 *149:8 0.000429356
10 *149:9 0.000125267
11 *149:10 6.78147e-05
12 *149:11 0.000192123
13 *149:15 4.59636e-05
14 *149:16 3.24493e-05
15 *149:17 0.00033953
16 *149:18 3.11093e-05
17 *149:19 3.02262e-05
18 *149:20 0.000110809
19 *149:21 3.24493e-05
20 *149:22 0.00011023
21 *149:23 5.27702e-05
22 *149:24 0.000108022
23 *149:25 0.000110809
24 *149:26 0.000108022
25 *149:27 0.00049896
26 *149:28 5.86403e-05
27 *149:29 0.00049896
28 *149:30 3.24493e-05
29 *149:31 5.95158e-05
30 *149:19 *147:14 2.17e-06
31 *149:18 *147:15 2.17e-06
32 *149:7 *147:7 6.281e-05
33 *149:8 *147:8 6.281e-05
34 *149:8 *147:7 0.00022291
35 *149:11 *147:8 0.00022291
36 *149 *147 9.198e-05
37 *149:17 *147:16 9.19799819e-05
38 *149:25 4.609e-05
39 *149:20 4.609e-05
40 *149:26 0.00015614
41 *149:24 0.00015614
42 *149:19 3.677e-05
43 *149:18 3.67699996e-05

*RES
1 *149:30 *662:A 1.40002
2 *149:14 *149:30 0.19304
3 *149:31 *149:30 1.40002
4 *149:28 *149:31 0.37284
5 *149:28 *149:29 0.124255
6 *149:27 *149:29 4.8471427
7 *149:26 *149:27 0.124255
8 *149:24 *149:26 1.61569
9 *149:24 *149:25 0.124255
10 *149:20 *149:25 1.24285
11 *149:19 *149:20 0.124255
12 *149:17 *149 3.85288
13 *149:6 *523:A0 1.40002
14 *149:18 *149:19 0.37284
15 *149:17 *149:7 0.37284
16 *149:6 *149:5 2.23711
17 *149:8 *149:18 1.40002
18 *149:8 *149:7 2.98287
19 *149:21 *548:A 1.40002
20 *149:13 *149:21 0.0300284
21 *149:23 *149:5 1.40002
22 *149:11 *149:8 2.23711
23 *149:22 *149:21 1.40002
24 *149:22 *149:23 0.37284
25 *149:9 *149:11 1.40002
26 *149:9 *149:22 0.74568
27 *149:10 *149:9 0.497169
28 *665:Q *149:15 0.386671
29 *149:16 *149:10 1.40002
30 *149:16 *149:15 1.40002
31 *149:12 *149:16 0.19304
*END

*D_NET *150 0.00286288

*CONN
*I *661:A I *C 15.805 50.315 *L 0.00178 *D DLY1X1
*P *150 O *C 0 41.325 *L 0.05
*I *675:Q O *C 15.225 44.515 *L 0 *D DFFHQX1
*I *543:A I *C 20.155 47.995 *L 0.00273 *D INVX1

*CAP
1 *661:A 3.67982e-05
2 *150 2.74024e-05
3 *675:Q 2.56619e-05
4 *543:A 3.67982e-05
5 *150:4 4.80327e-05
6 *150:5 4.80327e-05
7 *150:6 4.49313e-05
8 *150:7 4.40218e-05
9 *150:8 4.40218e-05
10 *150:9 0.0004288
11 *150:10 0.0004288
12 *150:11 0.000228693
13 *150:12 0.000124155
14 *150:13 0.000182689
15 *150:14 6.8977e-05
16 *150:15 6.80675e-05
17 *150:16 4.59585e-05
18 *150:17 9.017e-05
19 *150:18 9.79497e-05
20 *150:19 5.63751e-05
21 *150:20 8.59301e-05
22 *150:21 0.000117801
23 *150:22 5.54656e-05
24 *150:23 0.000117801
25 *150:6 *151:6 1.459e-05
26 *150:7 *151:5 1.459e-05
27 *150:8 *151:5 1.459e-05
28 *150 *151 1.459e-05
29 *150:9 *151:5 0.000117
30 *150:10 *151 0.000117
31 *150:4 *151:12 8.59e-06
32 *150:5 *151:11 8.58999216e-06

*RES
1 *150:5 *543:A 1.4
2 *150:5 *150:4 0.372834
3 *150:14 *150:4 1.4
4 *150:15 *150:14 0.497112
5 *150:23 *150:15 0.124278
6 *150:21 *150:23 0.994307
7 *150:21 *150:22 0.124278
8 *150:19 *150:22 0.372834
9 *150:20 *661:A 1.4
10 *150:18 *150:19 1.4
11 *150:18 *150:20 0.621391
12 *150:17 *150:18 0.248556
13 *150:13 *150:17 0.497112
14 *150:16 *675:Q 0.386697
15 *150:11 *150:13 1.36714
16 *150:11 *150:16 1.4
17 *150:12 *150:11 1.6157
18 *150:6 *150:12 1.4
19 *150:7 *150:6 0.372834
20 *150:9 *150:7 0.124278
21 *150:10 *150:9 5.34428549
22 *150:10 *150:8 0.124278
23 *150 *150:8 0.372834
*END

*D_NET *151 0.00298625

*CONN
*I *664:A I *C 21.895 42.485 *L 0.00178 *D DLY1X1
*P *151 O *C 0 41.905 *L 0.05
*I *674:Q O *C 21.605 44.515 *L 0 *D DFFQX1
*I *537:A I *C 18.985 50.2525 *L 0.00163 *D INVXL
*I *524:B0 I *C 21.025 50.025 *L 0.00262 *D OAI22X1

*CAP
1 *664:A 3.67978e-05
2 *151 0.000427421
3 *674:Q 3.67978e-05
4 *537:A 8.97963e-05
5 *524:B0 0.000117078
6 *151:5 0.00049336
7 *151:6 8.94424e-05
8 *151:7 0.000241723
9 *151:8 4.01177e-05
10 *151:9 0.000241723
11 *151:10 5.8607e-05
12 *151:11 0.000137811
13 *151:12 0.00012338
14 *151:13 5.43159e-05
15 *151:14 9.78063e-05
16 *151:15 8.9179e-05
17 *151:16 4.005e-05
18 *151:17 5.95179e-05
19 *151:18 0.000105282
20 *151:19 9.64888e-05
21 *151:6 *150:6 1.459e-05
22 *151:5 *150:7 1.459e-05
23 *151:5 *150:8 1.459e-05
24 *151 *150 1.459e-05
25 *151:5 *150:9 0.000117
26 *151 *150:10 0.000117
27 *151:12 *150:4 8.59e-06
28 *151:11 *150:5 8.58999216e-06

*RES
1 *537:A *524:B0 1.35337
2 *151:12 *524:B0 1.40002
3 *151:11 *151:12 1.2429
4 *151:11 *151:15 0.248579
5 *151:14 *151:15 0.621406
6 *151:14 *674:Q 1.40002
7 *151:13 *151:14 0.621406
8 *151:13 *151:19 0.124248
9 *151:18 *664:A 1.40002
10 *151:18 *151:19 0.869985
11 *151:16 *151:18 0.248579
12 *151:17 *151:16 1.40002
13 *151:10 *151:17 0.372827
14 *151:9 *151:10 0.124248
15 *151:7 *151:9 2.36146
16 *151:7 *151:8 0.124248
17 *151:6 *151:8 0.248579
18 *151:5 *151:6 0.745737
19 *151 *151:5 5.46857166
*END

*D_NET *152 0.00375929

*CONN
*I *656:A I *C 15.805 16.385 *L 0.00178 *D DLY1X1
*P *152 O *C 0 33.205 *L 0.05
*I *673:Q O *C 15.225 28.855 *L 0 *D DFFQXL
*I *553:A I *C 17.265 26.8875 *L 0.00163 *D INVXL
*I *518:B0 I *C 20.2675 26.7525 *L 0.00163 *D AOI222XL

*CAP
1 *656:A 3.68037e-05
2 *152 1.26003e-05
3 *673:Q 0.00068076
4 *553:A 3.68037e-05
5 *518:B0 3.68037e-05
6 *152:5 6.43312e-05
7 *152:6 0.000135685
8 *152:7 0.000127011
9 *152:8 5.68521e-05
10 *152:9 0.000260462
11 *152:10 0.00020495
12 *152:11 3.67414e-05
13 *152:12 3.67414e-05
14 *152:13 8.67687e-05
15 *152:14 3.01244e-05
16 *152:17 0.000664264
17 *152:18 0.000158828
18 *152:19 0.000158828
19 *152:20 0.000108666
20 *152:21 3.24513e-05
21 *152:22 0.00022584
22 *152:23 3.24513e-05
23 *152:24 0.000150986
24 *152:11 *125:68 1.256e-05
25 *152:12 *125:69 1.256e-05
26 *152:13 *125:136 8.725e-05
27 *152:9 *125:137 8.725e-05
28 *152:9 *125:68 7.986e-05
29 *152:10 *125:69 7.986e-05
30 *152:9 *125:136 1.21e-05
31 *152:10 *125:137 1.20999927e-05

*RES
1 *152:8 *656:A 1.39994
2 *152 *152:14 0.124344
3 *152:8 *152:7 0.372884
4 *152:19 *152:14 1.39994
5 *152:7 *152:6 0.869965
6 *152:18 *152:19 1.49139
7 *152:6 *152:5 0.621424
8 *152:17 *152:18 1.39994
9 *152:12 *152:5 0.124344
10 *152:17 *673:Q 9.66666698
11 *152:12 *152:11 0.372884
12 *152:10 *152:11 0.124344
13 *152:13 *673:Q 1.39994
14 *152:10 *152:9 2.23716
15 *152:9 *152:13 0.869965
16 *152:23 *518:B0 1.39994
17 *152:16 *152:23 0.19308
18 *152:20 *152:9 1.39994
19 *152:24 *152:23 1.39994
20 *152:20 *152:22 0.869965
21 *152:22 *152:24 1.24285
22 *152:21 *553:A 1.39994
23 *152:21 *152:22 1.39994
24 *152:15 *152:21 0.19308
*END

*D_NET *153 0.00484263

*CONN
*I *663:A I *C 27.985 34.655 *L 0.00178 *D DLY1X1
*P *153 O *C 0 32.335 *L 0.05
*I *672:Q O *C 27.115 28.855 *L 0 *D DFFQXL
*I *542:A I *C 27.705 26.8875 *L 0.00163 *D INVXL
*I *518:A0 I *C 21.895 27.115 *L 0.00155 *D AOI222XL

*CAP
1 *663:A 3.67977e-05
2 *153 0.000556102
3 *672:Q 3.67977e-05
4 *542:A 3.67977e-05
5 *518:A0 3.67977e-05
6 *153:5 0.000117281
7 *153:6 0.000117281
8 *153:7 0.00011372
9 *153:8 0.000112524
10 *153:9 3.74812e-05
11 *153:10 4.2571e-05
12 *153:11 0.000176129
13 *153:12 0.000171039
14 *153:13 0.000494782
15 *153:14 0.000510483
16 *153:15 0.00020942
17 *153:16 0.000178485
18 *153:18 0.00058933
19 *153:19 7.46116e-05
20 *153:20 0.000104665
21 *153:21 5.4693e-05
22 *153:22 3.24453e-05
23 *153:23 8.83972e-05
24 *153:24 5.74717e-05
25 *153:9 *33:12 4.935e-05
26 *153:10 *33:13 4.935e-05
27 *153:10 *33:12 2.402e-05
28 *153:11 *33:13 2.402e-05
29 *153:11 *33:12 0.00019957
30 *153:12 *33:13 0.000199569996
31 *153:15 *126:67 0.00013469
32 *153:16 *126:68 0.00013469
33 *153:5 *126:122 9.71e-06
34 *153:6 *126:123 9.71e-06
35 *153:20 *126:127 1.092e-05
36 *153:19 *126:128 1.09200092e-05

*RES
1 *153 *153:18 5.84142876
2 *153:14 *153:18 0.248592
3 *153:14 *153:13 3.23143
4 *153:24 *663:A 1.40001
5 *153:7 *153:13 1.40001
6 *153:23 *153:24 0.621436
7 *153:19 *518:A0 1.40001
8 *153:8 *153:7 1.11853
9 *153:23 *153:15 0.372844
10 *153:19 *153:20 0.870028
11 *153:8 *153:20 0.124252
12 *153:6 *542:A 1.40001
13 *153:16 *153:15 1.73997
14 *153:20 *153:21 0.248592
15 *153:6 *153:5 0.99428
16 *153:9 *153:16 1.40001
17 *153:12 *153:21 1.40001
18 *153:10 *153:5 1.40001
19 *153:10 *153:9 0.497185
20 *153:12 *153:11 1.98856
21 *153:11 *153:10 0.248592
22 *153:22 *153:11 1.40001
23 *153:22 *672:Q 1.40001
24 *153:17 *153:22 0.193062
*END

*D_NET *154 0.00307774

*CONN
*I *650:A I *C 20.735 32.045 *L 0.00172 *D CLKBUFX2
*P *154 O *C 0 30.305 *L 0.05
*I *671:Q O *C 27.405 28.855 *L 0 *D DFFQX1
*I *526:A I *C 26.825 26.535 *L 0.00149 *D XOR2XL

*CAP
1 *650:A 3.6801e-05
2 *154 0.000470797
3 *671:Q 3.6801e-05
4 *526:A 3.6801e-05
5 *154:4 7.63167e-05
6 *154:5 6.13003e-05
7 *154:7 0.00048742
8 *154:8 0.000387422
9 *154:9 7.34384e-05
10 *154:10 0.000428039
11 *154:11 7.34384e-05
12 *154:12 3.69274e-05
13 *154:13 7.26054e-05
14 *154:14 3.69274e-05
15 *154:15 0.000120094
16 *154:16 4.42534e-05
17 *154:17 0.000120325
18 *154:18 0.000117878
19 *154:19 0.000102869
20 *154:20 4.49303e-05
21 *154:20 *125:145 1.459e-05
22 *154:16 *125:142 1.459e-05
23 *154:17 *125:142 3.139e-05
24 *154:15 *125:143 3.139e-05
25 *154:10 *125:142 4.17e-05
26 *154:8 *125:143 4.17e-05
27 *154:14 *125:142 1.85e-05
28 *154:12 *125:143 1.85000001e-05

*RES
1 *154:11 *650:A 1.40003
2 *154 *154:7 4.97142839
3 *154:9 *154:11 0.621429
4 *154:7 *154:8 0.124255
5 *154:10 *154:9 1.40003
6 *154:8 *154:10 3.72857
7 *154:10 *154:13 0.497173
8 *154:12 *154:13 0.124255
9 *154:12 *154:14 0.497173
10 *154:14 *154:15 0.124255
11 *154:5 *526:A 1.40003
12 *154:15 *154:17 1.49144
13 *154:5 *154:4 0.745684
14 *154:16 *154:17 0.124255
15 *154:4 *154:18 0.248587
16 *154:16 *154:20 0.372842
17 *154:18 *154:19 0.870015
18 *154:19 *154:20 1.40003
19 *154:19 *671:Q 1.40003
20 *154:6 *154:19 0.193059
*END

*D_NET *155 0.00384465

*CONN
*I *648:A I *C 27.115 39.875 *L 0.00172 *D CLKBUFX2
*P *155 O *C 0 37.845 *L 0.05
*I *670:Q O *C 25.665 37.845 *L 0 *D DFFQX1
*I *525:A I *C 30.595 45.385 *L 0.00154 *D CLKXOR2X1

*CAP
1 *648:A 3.67989e-05
2 *155 0.00056646
3 *670:Q 3.67989e-05
4 *525:A 3.67989e-05
5 *155:4 5.30008e-05
6 *155:5 0.000104231
7 *155:6 8.36874e-05
8 *155:7 0.000480468
9 *155:8 0.000429879
10 *155:9 0.000167393
11 *155:10 0.000167393
12 *155:11 8.34827e-05
13 *155:13 0.00058308
14 *155:14 3.24482e-05
15 *155:15 0.000197394
16 *155:16 0.000293973
17 *155:17 0.000197394
18 *155:18 0.000293973

*RES
1 *155:18 *525:A 1.40003
2 *155:16 *155:18 1.98854
3 *155:17 *155:16 1.40003
4 *155:15 *155:17 1.49143
5 *155 *155:13 5.96571445
6 *155:4 *155:15 1.40003
7 *155:13 *155:10 0.124255
8 *155:5 *648:A 1.40003
9 *155:5 *155:4 0.372857
10 *155:10 *155:9 1.49143
11 *155:6 *155:5 0.86997
12 *155:8 *155:9 0.124255
13 *155:11 *155:6 1.40003
14 *155:8 *155:7 3.35571
15 *155:7 *155:11 0.621459
16 *155:14 *155:7 1.40003
17 *155:14 *670:Q 1.40003
18 *155:12 *155:14 0.193074
*END

*D_NET *156 0.00457412

*CONN
*I *659:A I *C 49.735 32.045 *L 0.00178 *D DLY1X1
*P *156 O *C 45.965 0 *L 0.05
*I *681:Q O *C 41.615 34.075 *L 0 *D DFFHQX1
*I *528:A I *C 42.775 26.535 *L 0.00149 *D XOR2XL

*CAP
1 *659:A 3.67942e-05
2 *156 6.38196e-05
3 *681:Q 3.67942e-05
4 *528:A 3.67942e-05
5 *156:4 7.3837e-05
6 *156:5 7.29335e-05
7 *156:6 0.000159329
8 *156:7 0.000173751
9 *156:8 0.00012791
10 *156:9 0.00012791
11 *156:10 9.508e-05
12 *156:11 0.00074012
13 *156:12 0.00074012
14 *156:13 0.000316286
15 *156:14 0.000152383
16 *156:15 0.000219964
17 *156:16 0.000219964
18 *156:17 0.000195445
19 *156:18 0.000169516
20 *156:19 0.000202549
21 *156:20 0.000180391
22 *156:21 9.87278e-05
23 *156:23 7.63667e-05
24 *156:24 7.63667e-05
25 *156:25 0.000148498
26 *156:26 3.24462e-05

*RES
1 *156 *156:10 0.37288
2 *156:12 *156:10 0.248587
3 *156:12 *156:11 7.20857143
4 *156:11 *156:9 0.248587
5 *156:9 *156:8 0.870053
6 *156:7 *156:8 0.248587
7 *156:7 *156:6 1.49141
8 *156:15 *156:6 1.4
9 *156:16 *156:15 1.11853
10 *156:14 *156:16 1.4
11 *156:13 *528:A 1.4
12 *156:14 *156:13 1.24282
13 *156:13 *156:17 1.98858
14 *156:24 *681:Q 1.4
15 *156:17 *156:5 0.124293
16 *156:23 *156:24 0.497173
17 *156:5 *156:4 0.74576
18 *156:21 *156:23 1.4
19 *156:20 *156:4 1.4
20 *156:21 *156:20 0.621467
21 *156:20 *156:25 0.870053
22 *156:19 *156:25 0.37288
23 *156:19 *156:18 1.98858
24 *156:26 *659:A 1.4
25 *156:26 *156:18 1.4
26 *156:22 *156:26 0.19304
*END

*D_NET *157 0.00430306

*CONN
*I *660:A I *C 39.005 42.485 *L 0.00172 *D CLKBUFX2
*P *157 O *C 39.585 0 *L 0.05
*I *680:Q O *C 39.005 37.845 *L 0 *D DFFHQX1
*I *527:A I *C 36.105 34.945 *L 0.00149 *D XOR2XL

*CAP
1 *660:A 3.67858e-05
2 *157 0.00151312
3 *680:Q 3.67858e-05
4 *527:A 3.67858e-05
5 *157:4 8.20265e-05
6 *157:5 8.29608e-05
7 *157:6 0.00015046
8 *157:7 0.000138735
9 *157:8 0.000172041
10 *157:9 0.000172041
11 *157:10 8.0812e-05
12 *157:11 7.99245e-05
13 *157:12 7.21936e-05
14 *157:13 7.21936e-05
15 *157:14 4.5521e-05
16 *157:15 0.00153064

*RES
1 *157:10 *660:A 1.39991
2 *157:13 *527:A 1.39991
3 *157:11 *157:10 0.372963
4 *157:13 *157:12 0.621527
5 *157 *157:15 15.4114285
6 *157:8 *157:11 0.124399
7 *157:7 *157:12 1.39991
8 *157:14 *157:15 1.39991
9 *157:9 *157:8 1.49138
10 *157:7 *157:6 1.24282
11 *157:6 *157:14 0.248564
12 *157:9 *157:4 0.124399
13 *157:5 *157:6 1.39991
14 *157:5 *157:4 0.745692
15 *157:5 *680:Q 1.39991
16 *157:16 *157:5 0.193066
*END

*D_NET *158 0.00565915

*CONN
*I *635:A I *C 44.805 42.775 *L 0.00155 *D DLY2X1
*P *158 O *C 43.355 0 *L 0.05
*I *741:A I *C 40.165 37.265 *L 0.00157 *D NAND2XL
*I *679:Q O *C 41.905 44.515 *L 0 *D DFFQX1
*I *530:A I *C 39.005 47.415 *L 0.00149 *D XOR2XL

*CAP
1 *635:A 3.67932e-05
2 *158 0.00156155
3 *741:A 3.67932e-05
4 *679:Q 3.67932e-05
5 *530:A 3.67932e-05
6 *158:5 0.000189387
7 *158:6 0.000189387
8 *158:7 5.00214e-05
9 *158:8 4.93467e-05
10 *158:9 5.30332e-05
11 *158:10 4.55879e-05
12 *158:11 0.000103777
13 *158:12 0.000102862
14 *158:13 8.14895e-05
15 *158:14 8.14895e-05
16 *158:15 0.000131872
17 *158:16 0.000194062
18 *158:17 0.00010944
19 *158:18 4.72504e-05
20 *158:19 6.54181e-05
21 *158:20 6.63337e-05
22 *158:21 0.00157907
23 *158:24 0.000372871
24 *158:25 0.000372871
25 *158:26 3.2456e-05
26 *158:27 3.2456e-05

*RES
1 *158:20 *635:A 1.40005
2 *158:20 *158:19 0.497107
3 *158:12 *158:19 0.124217
4 *158:13 *530:A 1.40005
5 *158:12 *158:11 0.745779
6 *158:14 *158:13 0.745779
7 *158:15 *158:11 1.40005
8 *158:23 *158:27 0.192964
9 *158:27 *679:Q 1.40005
10 *158 *158:21 15.5357141
11 *158:18 *158:14 1.40005
12 *158:16 *158:15 1.11867
13 *158:16 *158:27 1.40005
14 *158:7 *158:21 1.40005
15 *158:18 *158:17 0.248672
16 *158:17 *158:16 0.994214
17 *158:8 *158:7 0.248672
18 *158:25 *158:17 1.40005
19 *158:8 *158:5 0.124217
20 *158:24 *158:25 3.6042
21 *158:6 *158:5 1.11867
22 *158:10 *158:24 1.40005
23 *158:6 *158:9 0.124217
24 *158:10 *158:9 0.248672
25 *158:26 *741:A 1.40005
26 *158:26 *158:9 1.40005
27 *158:22 *158:26 0.192964
*END

*D_NET *159 0.00510584

*CONN
*I *651:A I *C 52.925 37.265 *L 0.00172 *D CLKBUFX2
*P *159 O *C 41.615 0 *L 0.05
*I *678:Q O *C 45.965 37.845 *L 0 *D DFFQXL
*I *539:A I *C 40.745 29.145 *L 0.00273 *D INVX1
*I *519:C1 I *C 40.745 27.115 *L 0.00176 *D AOI222XL

*CAP
1 *651:A 3.68016e-05
2 *159 0.0011554
3 *678:Q 3.68016e-05
4 *539:A 3.68016e-05
5 *519:C1 3.68016e-05
6 *159:5 0.000122054
7 *159:6 0.000225488
8 *159:7 0.00120229
9 *159:8 0.0001699
10 *159:9 3.6398e-05
11 *159:10 0.000266105
12 *159:11 0.000266105
13 *159:12 0.000125779
14 *159:13 0.0001251
15 *159:14 0.000122385
16 *159:15 0.000139244
17 *159:16 0.00013319
18 *159:17 0.000117009
19 *159:18 0.000343635
20 *159:19 0.000343635
21 *159:22 3.24537e-05
22 *159:23 3.24537e-05

*RES
1 *159 *159:7 10.688571
2 *159:8 *159:7 0.372834
3 *159:6 *519:C1 1.4
4 *159:8 *159:6 0.745669
5 *159:5 *539:A 1.4
6 *159:6 *159:5 0.869947
7 *159:23 *651:A 1.4
8 *159:21 *159:23 0.193104
9 *159:5 *159:9 0.248556
10 *159:12 *159:23 1.4
11 *159:11 *159:9 1.4
12 *159:13 *159:12 0.994225
13 *159:11 *159:10 2.23717
14 *159:13 *159:14 0.124278
15 *159:19 *159:10 1.4
16 *159:15 *159:14 0.994225
17 *159:19 *159:18 3.10712
18 *159:16 *159:15 0.248556
19 *159:17 *159:18 1.4
20 *159:17 *159:16 0.994225
21 *159:22 *159:17 1.4
22 *159:22 *678:Q 1.4
23 *159:20 *159:22 0.193104
*END

*D_NET *160 0.00450335

*CONN
*I *658:A I *C 44.805 39.875 *L 0.00184 *D DLY1X4
*P *160 O *C 45.675 0 *L 0.05
*I *677:Q O *C 45.385 27.405 *L 0 *D DFFQX1
*I *549:A I *C 41.905 27.115 *L 0.00273 *D INVX1
*I *515:A0 I *C 43.01 23.9125 *L 0.00263 *D AOI211X1

*CAP
1 *658:A 3.68016e-05
2 *160 0.000525703
3 *677:Q 3.68016e-05
4 *549:A 3.68016e-05
5 *515:A0 5.25737e-05
6 *160:5 6.50741e-05
7 *160:6 0.000165618
8 *160:7 0.000133014
9 *160:8 0.000159537
10 *160:9 0.000159537
11 *160:10 0.0004374
12 *160:11 0.00045316
13 *160:16 7.28811e-05
14 *160:17 3.24468e-05
15 *160:18 3.38006e-05
16 *160:19 0.000565201
17 *160:20 3.24468e-05
18 *160:21 0.00073936
19 *160:22 0.00022284
20 *160:23 0.000542355

*RES
1 *160:16 *515:A0 0.773353
2 *160:7 *160:16 1.40001
3 *160:5 *549:A 1.40001
4 *160:7 *160:6 0.994299
5 *160:6 *160:5 0.372851
6 *160 *160:23 5.4686
7 *160:9 *160:6 1.40001
8 *160:14 *160:20 0.0300398
9 *160:20 *677:Q 1.40001
10 *160:19 *160:23 0.124255
11 *160:9 *160:8 1.49141
12 *160:15 *160:8 0.19304
13 *160:8 *160:20 1.40001
14 *160:19 *160:21 5.59285736
15 *160:21 *160:8 1.40001
16 *160:21 *160:22 1.86426
17 *160:11 *160:22 0.248596
18 *160:11 *160:10 3.97711
19 *160:13 *160:18 0.19304
20 *160:18 *160:10 1.40001
21 *160:17 *658:A 1.40001
22 *160:17 *160:18 1.40001
23 *160:12 *160:17 0.19304
*END

*D_NET *161 0.0034503

*CONN
*I *657:A I *C 62.785 18.995 *L 0.00184 *D DLY1X4
*P *161 O *C 54.085 0 *L 0.05
*I *676:Q O *C 50.315 18.415 *L 0 *D DFFQX1
*I *529:A I *C 49.445 21.315 *L 0.00149 *D XOR2XL

*CAP
1 *657:A 3.67962e-05
2 *161 0.000754822
3 *676:Q 3.67962e-05
4 *529:A 3.67962e-05
5 *161:4 0.00077166
6 *161:5 0.000162563
7 *161:6 0.000318119
8 *161:7 0.000187572
9 *161:8 0.000141721
10 *161:9 0.00014085
11 *161:10 4.90419e-05
12 *161:11 3.34168e-05
13 *161:13 9.01124e-05
14 *161:14 7.56883e-05
15 *161:15 3.90687e-05
16 *161:16 4.10351e-05
17 *161:17 3.24513e-05
18 *161:5 *88:9 5.787e-05
19 *161:6 *88:10 5.787e-05
20 *161:6 *88:9 2.738e-05
21 *161:7 *88:10 2.738e-05
22 *161:8 *88:9 3.139e-05
23 *161:9 *88:10 3.139e-05
24 *161:8 *88:7 2.829e-05
25 *161:9 *88:8 2.82900077e-05
26 *161:8 *178:4 6.186e-05
27 *161:9 *178:5 6.186e-05
28 *161:8 *178:6 3.424e-05
29 *161:9 *178:7 3.424e-05
30 *161:10 *178:15 9.87e-06
31 *161:11 *178:14 9.86999147e-06

*RES
1 *161:14 *529:A 1.39997
2 *161:13 *161:14 0.497145
3 *161:13 *161:10 0.248511
4 *161:11 *161:10 0.248511
5 *161:11 *161:15 0.124255
6 *161:15 *676:Q 1.39997
7 *161:16 *161:15 1.39997
8 *161 *161:4 8.07857132
9 *161:7 *161:16 0.124255
10 *161:6 *161:4 1.39997
11 *161:7 *161:6 1.61569
12 *161:6 *161:5 1.61569
13 *161:9 *161:5 0.124255
14 *161:9 *161:8 2.11283
15 *161:17 *657:A 1.39997
16 *161:17 *161:8 1.39997
17 *161:12 *161:17 0.19304
*END

*D_NET *162 0.00578958

*CONN
*P *162 O *C 0 54.955 *L 0.05
*I *578:Q O *C 25.955 58.725 *L 0 *D DFFHQX1
*I *558:A I *C 16.385 24.215 *L 0.00184 *D DLY1X4

*CAP
1 *162 5.52084e-05
2 *578:Q 2.56653e-05
3 *558:A 3.68096e-05
4 *162:3 0.00078195
5 *162:4 0.000665531
6 *162:5 0.000132383
7 *162:6 0.000132383
8 *162:7 0.000115953
9 *162:8 0.000115953
10 *162:9 5.1438e-05
11 *162:10 3.70124e-05
12 *162:11 0.000345831
13 *162:12 0.000361474
14 *162:13 0.000501589
15 *162:14 0.000501589
16 *162:15 6.2105e-05
17 *162:16 6.1234e-05
18 *162:17 7.18652e-05
19 *162:18 0.000444459
20 *162:19 0.000444459
21 *162:20 8.11839e-05
22 *162:21 8.20669e-05
23 *162:24 0.00014768
24 *162:25 3.24545e-05
25 *162:26 4.46488e-05
26 *162:27 4.59613e-05
27 *162:28 3.24545e-05
28 *162:29 4.10573e-05
29 *162:30 4.46488e-05
30 *162:7 *22:22 4.083e-05
31 *162:8 *22:17 4.083e-05
32 *162:9 *22:2 1.256e-05
33 *162:10 *22:3 1.256e-05
34 *162:11 *22:2 9.289e-05
35 *162:12 *22:3 9.28900025e-05

*RES
1 *162:27 *578:Q 0.386665
2 *162:23 *162:28 0.193062
3 *162:28 *162:27 1.39997
4 *162:29 *162:28 1.39997
5 *162:29 *162:30 0.124312
6 *162:26 *162:30 0.248625
7 *162 *162:17 0.745766
8 *162:26 *162:18 0.124312
9 *162:17 *162:14 0.124312
10 *162:19 *162:18 4.22575
11 *162:14 *162:13 4.47427
12 *162:20 *162:19 0.124312
13 *162:16 *162:13 0.124312
14 *162:21 *162:20 0.621453
15 *162:16 *162:15 0.372829
16 *162:24 *162:21 1.39997
17 *162:3 *162:15 1.39997
18 *162:3 *162:24 1.49142
19 *162:4 *162:3 7.08428574
20 *162:5 *162:4 0.124312
21 *162:6 *162:5 1.36711
22 *162:11 *162:6 0.124312
23 *162:12 *162:11 4.34996
24 *162:12 *162:9 0.248625
25 *162:10 *162:9 0.372829
26 *162:8 *162:10 1.39997
27 *162:8 *162:7 1.24291
28 *162:25 *558:A 1.39997
29 *162:25 *162:7 1.39997
30 *162:22 *162:25 0.193062
*END

*D_NET *163 0.00421694

*CONN
*I *568:A I *C 39.585 74.095 *L 0.00155 *D DLY2X1
*P *163 O *C 44.805 90.19 *L 0.05
*I *577:Q O *C 44.805 60.175 *L 0 *D DFFQX1
*I *551:A I *C 44.515 60.465 *L 0.00273 *D INVX1

*CAP
1 *568:A 3.68003e-05
2 *163 0.000302303
3 *577:Q 3.68003e-05
4 *551:A 3.68003e-05
5 *163:4 0.000110741
6 *163:5 0.000110741
7 *163:6 4.20793e-05
8 *163:7 4.09069e-05
9 *163:8 0.000352187
10 *163:9 6.55191e-05
11 *163:10 4.05462e-05
12 *163:11 4.05462e-05
13 *163:13 5.99834e-05
14 *163:14 5.60779e-05
15 *163:15 0.000173214
16 *163:16 0.00045461
17 *163:17 0.00045461
18 *163:18 5.53634e-05
19 *163:19 0.000173214
20 *163:20 4.55269e-05
21 *163:21 5.99418e-05
22 *163:22 5.90608e-05
23 *163:23 5.91926e-05
24 *163:24 6.00736e-05
25 *163:25 3.91033e-05
26 *163:26 4.55269e-05
27 *163:27 5.9262e-05
28 *163:10 *125:293 7.62e-06
29 *163:11 *125:294 7.62e-06
30 *163 *125 0.00023697
31 *163:8 *125:74 0.00023697
32 *163:8 *125 2.468e-05
33 *163:9 *125:74 2.468e-05
34 *163:6 *125:349 9.87e-06
35 *163:7 *125:347 9.87001345e-06
36 *163:8 *166:16 1.256e-05
37 *163:9 *166:15 1.256e-05
38 *163 *166 0.00023697
39 *163:8 *166:12 0.00023697
40 *163:8 *166 4.443e-05
41 *163:9 *166:12 4.44300133e-05

*RES
1 *163:5 *568:A 1.40003
2 *163:5 *163:4 0.745714
3 *163:13 *163:4 1.40003
4 *163:13 *163:14 0.58004
5 *163:14 *163:15 0.193347
6 *163:15 *163:19 2.31998
7 *163:18 *163:19 0.193347
8 *163:18 *163:27 0.58004
9 *163:8 *163:27 1.40003
10 *163:8 *163 5.96571445
11 *163:9 *163:8 1.24283
12 *163:10 *163:9 1.40003
13 *163:11 *163:10 0.248602
14 *163:24 *163:11 1.40003
15 *163:23 *163:24 0.372857
16 *163:17 *163:23 0.124255
17 *163:16 *163:17 4.22568
18 *163:16 *163:22 0.124255
19 *163:21 *163:22 0.372857
20 *163:25 *551:A 1.40003
21 *163:20 *163:21 1.40003
22 *163:25 *163:7 0.124255
23 *163:20 *163:26 0.248602
24 *163:7 *163:6 0.372857
25 *163:6 *163:26 1.40003
26 *163:6 *577:Q 1.40003
27 *163:12 *163:6 0.193074
*END

*D_NET *164 0.00678203

*CONN
*I *569:A I *C 68.875 50.025 *L 0.00155 *D DLY2X1
*P *164 O *C 45.675 90.19 *L 0.05
*I *589:Q O *C 47.125 58.725 *L 0 *D DFFQX1
*I *545:A I *C 44.515 58.435 *L 0.00273 *D INVX1

*CAP
1 *569:A 3.67956e-05
2 *164 1.66478e-05
3 *589:Q 3.67956e-05
4 *545:A 3.67956e-05
5 *164:4 0.000361108
6 *164:5 0.0002051
7 *164:6 0.000235793
8 *164:7 0.000236645
9 *164:8 0.000206043
10 *164:9 0.000118072
11 *164:10 0.000118072
12 *164:11 0.000127035
13 *164:12 0.000127917
14 *164:13 0.000225993
15 *164:14 0.000225993
16 *164:15 6.19803e-05
17 *164:16 6.11129e-05
18 *164:17 4.65195e-05
19 *164:18 4.56521e-05
20 *164:19 4.1863e-05
21 *164:20 7.01673e-05
22 *164:21 6.12347e-05
23 *164:22 0.000996387
24 *164:23 0.00099727
25 *164:27 3.24434e-05
26 *164:28 0.000210319
27 *164:29 0.000210319
28 *164:30 6.00782e-05
29 *164:31 5.91956e-05
30 *164:32 5.90586e-05
31 *164:33 5.9926e-05
32 *164:34 0.000134963
33 *164:35 3.24434e-05
34 *164:36 0.000119137
35 *164:22 *141:10 0.00013673
36 *164:23 *141:9 0.000136730001
37 *164:22 *175 0.00030137
38 *164:23 *175:10 0.00030137001
39 *164:8 *106:6 1.566e-05
40 *164:4 *106:7 1.566e-05
41 *164:9 *106:9 7.491e-05
42 *164:10 *106:8 7.491e-05
43 *164:9 *106:8 2.489e-05
44 *164:10 *106:2 2.48900006e-05

*RES
1 *164:35 *569:A 1.39992
2 *164:26 *164:35 0.193142
3 *164:36 *164:35 1.39992
4 *164:34 *164:36 0.745737
5 *164:8 *164:34 0.248647
6 *164:4 *164:8 1.86424
7 *164:5 *164:4 1.73992
8 *164:5 *164:6 0.124324
9 *164:7 *164:6 1.24283
10 *164:30 *164:7 1.39992
11 *164:30 *164:31 0.372766
12 *164:28 *164:31 0.124324
13 *164:28 *164:29 1.86424
14 *164:29 *164:32 0.124324
15 *164:32 *164:33 0.372766
16 *164:15 *164:33 1.39992
17 *164:16 *164:15 0.372766
18 *164:16 *164:13 0.124324
19 *164:14 *164:13 2.23721
20 *164:11 *164:14 0.124324
21 *164:12 *164:11 1.1185
22 *164:10 *164:12 1.39992
23 *164:10 *164:9 1.24283
24 *164:25 *164:9 0.193142
25 *164:9 *589:Q 1.39992
26 *164:17 *164:9 1.39992
27 *164 *164:22 0.124324
28 *164:18 *164:17 0.248647
29 *164:23 *164:22 13.4228573
30 *164:19 *164:18 0.124324
31 *164:20 *164:23 1.39992
32 *164:20 *164:19 0.248647
33 *164:21 *164:20 0.621413
34 *164:27 *545:A 1.39992
35 *164:27 *164:21 1.39992
36 *164:24 *164:27 0.193142
*END

*D_NET *165 0.00342726

*CONN
*I *563:A I *C 49.735 71.195 *L 0.00184 *D DLY1X4
*P *165 O *C 43.645 90.19 *L 0.05
*I *593:Q O *C 42.775 74.385 *L 0 *D DFFQXL
*I *536:A I *C 43.645 65.685 *L 0.00273 *D INVX1
*I *520:B0 I *C 43.355 68.875 *L 0.00262 *D OAI22X1

*CAP
1 *563:A 3.67969e-05
2 *165 2.6662e-05
3 *593:Q 3.67969e-05
4 *536:A 3.67969e-05
5 *520:B0 3.67969e-05
6 *165:5 0.000101882
7 *165:6 0.000103052
8 *165:7 4.22919e-05
9 *165:8 0.000177354
10 *165:9 0.000177354
11 *165:10 0.000459302
12 *165:11 0.00045933
13 *165:12 0.000135321
14 *165:13 5.30996e-05
15 *165:14 8.46608e-05
16 *165:15 8.55369e-05
17 *165:16 0.00023871
18 *165:17 0.000237827
19 *165:18 8.44015e-05
20 *165:19 6.9914e-05
21 *165:20 0.00015932
22 *165:21 0.000108421
23 *165:22 5.24618e-05
24 *165:23 5.24618e-05
25 *165 *166 1.481e-05
26 *165:7 *166:12 1.481e-05
27 *165:8 *166 3.11e-05
28 *165:9 *166:12 3.11e-05
29 *165:10 *166 0.00013945
30 *165:11 *166:12 0.00013945

*RES
1 *165:23 *563:A 1.40001
2 *165:22 *165:23 0.372844
3 *165:6 *536:A 1.40001
4 *165:16 *165:22 1.40001
5 *165:7 *165 0.372844
6 *165:6 *165:5 0.99428
7 *165:17 *165:16 1.86431
8 *165:10 *165:7 0.124252
9 *165:13 *165:5 0.124252
10 *165:17 *165:14 0.124252
11 *165:11 *165:10 5.84142876
12 *165:12 *520:B0 1.40001
13 *165:13 *165:12 0.248592
14 *165:15 *165:14 0.870028
15 *165:11 *165:8 0.124252
16 *165:12 *165:20 0.870028
17 *165:20 *165:15 1.40001
18 *165:9 *165:8 1.36712
19 *165:20 *165:21 0.621436
20 *165:21 *165:9 0.124252
21 *165:19 *593:Q 1.40001
22 *165:18 *165:21 0.248592
23 *165:18 *165:19 0.621436
*END

*D_NET *166 0.0039753

*CONN
*I *564:A I *C 51.475 65.685 *L 0.00155 *D DLY2X1
*P *166 O *C 44.225 90.19 *L 0.05
*I *584:Q O *C 44.515 69.165 *L 0 *D DFFQX1
*I *540:A I *C 42.485 65.685 *L 0.00273 *D INVX1
*I *520:A0 I *C 42.195 68.585 *L 0.00264 *D OAI22X1

*CAP
1 *564:A 3.68007e-05
2 *166 0.000384958
3 *584:Q 3.68007e-05
4 *540:A 3.68007e-05
5 *520:A0 3.68007e-05
6 *166:5 4.78714e-05
7 *166:6 0.000104601
8 *166:7 8.80221e-05
9 *166:8 0.000147001
10 *166:9 0.000147001
11 *166:10 0.00011418
12 *166:11 3.90992e-05
13 *166:12 0.00040062
14 *166:13 3.46122e-05
15 *166:14 0.000395846
16 *166:15 0.000136499
17 *166:16 0.000133179
18 *166:17 0.000315477
19 *166:17 *125:278 4.45e-06
20 *166:14 *125:279 4.45e-06
21 *166:14 *125:278 2.17e-06
22 *166:10 *125:279 2.17e-06
23 *166:16 *125:75 9.87e-06
24 *166:15 *125:76 9.87e-06
25 *166:16 *125:76 4.94e-06
26 *166:15 *125:77 4.94e-06
27 *166:15 *125:76 9.87e-06
28 *166:13 *125:77 9.87e-06
29 *166:16 *125:280 6.083e-05
30 *166:15 *125:281 6.083e-05
31 *166:16 *125:281 9.811e-05
32 *166:15 *125:282 9.8109998e-05
33 *166:16 *163:8 1.256e-05
34 *166:15 *163:9 1.256e-05
35 *166 *163 0.00023697
36 *166:12 *163:8 0.00023697
37 *166 *163:8 4.443e-05
38 *166:12 *163:9 4.44300133e-05
39 *166 *165 1.481e-05
40 *166:12 *165:7 1.481e-05
41 *166 *165:8 3.11e-05
42 *166:12 *165:9 3.11e-05
43 *166 *165:10 0.00013945
44 *166:12 *165:11 0.00013945

*RES
1 *166:12 *166 7.08428574
2 *166:9 *564:A 1.39997
3 *166:12 *166:16 0.124312
4 *166:9 *166:8 0.745766
5 *166:15 *166:16 2.23719
6 *166:15 *584:Q 1.39997
7 *166:17 *166:8 1.39997
8 *166:13 *166:15 0.248625
9 *166:14 *166:17 2.98285
10 *166:14 *166:13 1.39997
11 *166:5 *520:A0 1.39997
12 *166:10 *166:14 0.994282
13 *166:11 *540:A 1.39997
14 *166:6 *166:5 0.497141
15 *166:6 *166:10 1.39997
16 *166:7 *166:11 0.124312
17 *166:7 *166:6 0.745766
*END

*D_NET *167 0.00198944

*CONN
*P *167 O *C 0 54.375 *L 0.05
*I *586:Q O *C 15.225 58.725 *L 0 *D DFFQXL
*I *559:A I *C 15.805 52.925 *L 0.00178 *D DLY1X1

*CAP
1 *167 0.000699531
2 *586:Q 3.67967e-05
3 *559:A 3.67967e-05
4 *167:3 0.00071706
5 *167:4 0.000107797
6 *167:5 9.3354e-05
7 *167:6 8.59356e-05
8 *167:7 0.000125599
9 *167:8 8.65593e-05

*RES
1 *167:5 *586:Q 1.40003
2 *167:4 *167:5 0.994263
3 *167:6 *559:A 1.40003
4 *167:4 *167:8 0.248566
5 *167:6 *167:7 0.621465
6 *167:7 *167:8 0.497131
7 *167:3 *167:7 1.40003
8 *167 *167:3 6.58714294
*END

*D_NET *168 0.00238894

*CONN
*P *168 O *C 0 54.085 *L 0.05
*I *576:Q O *C 15.805 54.955 *L 0 *D DFFQX1
*I *557:A I *C 16.095 60.755 *L 0.00172 *D CLKBUFX2

*CAP
1 *168 3.58354e-05
2 *576:Q 0.00068052
3 *557:A 3.68011e-05
4 *168:3 4.68529e-05
5 *168:4 4.80575e-05
6 *168:5 0.000299695
7 *168:6 0.00029849
8 *168:9 7.95316e-05
9 *168:10 5.33741e-05
10 *168:11 0.00066402
11 *168:12 3.24502e-05
12 *168:13 3.38001e-05
13 *168:14 7.95316e-05

*RES
1 *168:5 *557:A 1.39994
2 *168:6 *168:5 1.73993
3 *168:3 *168:6 0.124344
4 *168 *168:10 0.372884
5 *168:4 *168:3 0.24854
6 *168:9 *168:10 1.39994
7 *576:Q *168:4 1.39994
8 *168:9 *168:14 0.621424
9 *168:13 *168:14 1.39994
10 *168:8 *168:13 0.19308
11 *168:11 *576:Q 9.66666698
12 *168:12 *168:13 1.39994
13 *168:12 *168:11 1.39994
14 *168:7 *168:12 0.19308
*END

*D_NET *169 0.00311455

*CONN
*I *571:A I *C 20.735 16.675 *L 0.00155 *D DLY2X1
*P *169 O *C 0 23.055 *L 0.05
*I *583:Q O *C 15.225 22.185 *L 0 *D DFFQX1
*I *546:A I *C 20.155 23.925 *L 0.00273 *D INVX1
*I *518:C1 I *C 19.575 27.115 *L 0.00176 *D AOI222XL

*CAP
1 *571:A 3.6806e-05
2 *169 0.000579465
3 *583:Q 2.58193e-05
4 *546:A 3.6806e-05
5 *518:C1 3.6806e-05
6 *169:5 0.000101697
7 *169:6 0.00010291
8 *169:7 0.00013282
9 *169:8 0.000147249
10 *169:9 0.000123903
11 *169:10 0.000123903
12 *169:11 7.30242e-05
13 *169:12 7.73845e-05
14 *169:13 9.76922e-05
15 *169:14 9.76922e-05
16 *169:15 4.61147e-05
17 *169:16 0.00080269
18 *169:17 6.75369e-05
19 *169:18 7.19096e-05
20 *169:19 0.000239503
21 *169:20 3.85943e-05
22 *169:21 5.42231e-05

*RES
1 *169:6 *571:A 1.40002
2 *169:6 *169:5 0.869973
3 *169:5 *169:10 0.124242
4 *169:10 *169:9 1.11855
5 *169:7 *518:C1 1.40002
6 *169:20 *169:9 0.124242
7 *169:8 *169:7 1.11855
8 *169:20 *169:21 0.248577
9 *169:8 *169:11 0.248577
10 *169:17 *169:21 0.248577
11 *169:12 *546:A 1.40002
12 *169:12 *169:11 0.248577
13 *169:15 *583:Q 0.386665
14 *169:17 *169:18 0.497154
15 *169:18 *169:12 0.372819
16 *169:14 *169:15 1.40002
17 *169:19 *169:18 1.40002
18 *169:14 *169:13 0.621396
19 *169:16 *169:19 2.36144
20 *169:16 *169:13 1.40002
21 *169 *169:16 6.09000015
*END

*D_NET *170 0.00381694

*CONN
*I *572:A I *C 24.795 23.925 *L 0.00155 *D DLY2X1
*P *170 O *C 25.665 0 *L 0.05
*I *582:Q O *C 21.315 22.185 *L 0 *D DFFQX1
*I *538:A I *C 23.635 27.115 *L 0.00273 *D INVX1
*I *514:A0 I *C 29.09 27.1275 *L 0.00263 *D AOI211X1

*CAP
1 *572:A 3.67968e-05
2 *170 2.66608e-05
3 *582:Q 3.67968e-05
4 *538:A 2.56601e-05
5 *514:A0 3.67968e-05
6 *170:5 4.2289e-05
7 *170:6 0.00052469
8 *170:7 0.000509062
9 *170:8 4.84939e-05
10 *170:9 0.00014296
11 *170:10 0.000120382
12 *170:11 0.000251172
13 *170:12 0.000242093
14 *170:13 4.16405e-05
15 *170:14 4.16405e-05
16 *170:15 0.000149485
17 *170:16 0.000149485
18 *170:17 0.000312108
19 *170:18 0.000312108
20 *170:20 7.5523e-05
21 *170:21 5.29374e-05
22 *170:22 6.10957e-05
23 *170:23 3.24494e-05
24 *170:5 *171:19 1.481e-05
25 *170 *171 1.481e-05
26 *170:6 *171:19 0.00013926
27 *170:7 *171 0.00013926
28 *170:6 *171:18 1.946e-05
29 *170:7 *171:17 1.946e-05
30 *170:8 *171:16 5.93e-06
31 *170:9 *171:8 5.93e-06
32 *170:9 *171:16 2.057e-05
33 *170:10 *171:8 2.057e-05
34 *170:10 *171:16 1.092e-05
35 *170:11 *171:8 1.092e-05
36 *170:11 *171:16 2.639e-05
37 *170:12 *171:8 2.639e-05
38 *170:11 *171:8 3.497e-05
39 *170:12 *171:9 3.49700119e-05

*RES
1 *170 *170:5 0.372865
2 *170:14 *582:Q 1.40004
3 *170:7 *170:5 0.124255
4 *170:14 *170:13 0.248609
5 *170:7 *170:6 6.46285725
6 *170:16 *170:13 1.40004
7 *538:A *170:21 0.386671
8 *170:12 *170:6 0.248609
9 *170:16 *170:15 1.49146
10 *170:22 *170:21 1.40004
11 *170:12 *170:11 2.73431
12 *170:11 *170:15 1.40004
13 *170:20 *170:22 0.372865
14 *170:10 *572:A 1.40004
15 *170:11 *170:10 0.49712
16 *170:20 *170:9 0.248609
17 *170:10 *170:9 0.99424
18 *170:9 *170:8 0.372865
19 *170:18 *170:8 1.40004
20 *170:18 *170:17 1.86432
21 *170:23 *514:A0 1.40004
22 *170:23 *170:17 1.40004
23 *170:19 *170:23 0.193089
*END

*D_NET *171 0.0034487

*CONN
*I *573:A I *C 29.435 16.675 *L 0.00155 *D DLY2X1
*P *171 O *C 26.245 0 *L 0.05
*I *581:Q O *C 22.475 18.415 *L 0 *D DFFQX1
*I *526:B I *C 25.665 26.825 *L 0.00255 *D XOR2XL

*CAP
1 *573:A 1.28181e-05
2 *171 0.000484386
3 *581:Q 3.67986e-05
4 *526:B 3.67986e-05
5 *171:4 4.68089e-05
6 *171:5 9.7593e-05
7 *171:6 9.7593e-05
8 *171:7 4.68089e-05
9 *171:8 0.000305727
10 *171:9 9.4068e-05
11 *171:12 3.30142e-05
12 *171:13 3.30142e-05
13 *171:14 0.000151658
14 *171:15 0.000151658
15 *171:16 0.000242918
16 *171:17 6.34724e-05
17 *171:18 7.12777e-05
18 *171:19 0.00050002
19 *171:20 4.01023e-05
20 *171:21 3.24496e-05
21 *171:4 *67:8 3.751e-05
22 *171:5 *67:9 3.751e-05
23 *171:5 *67:8 8.753e-05
24 *171:6 *67:9 8.753e-05
25 *171:6 *67:8 3.751e-05
26 *171:7 *67:9 3.75099973e-05
27 *171:19 *170:5 1.481e-05
28 *171 *170 1.481e-05
29 *171:19 *170:6 0.00013926
30 *171 *170:7 0.00013926
31 *171:18 *170:6 1.946e-05
32 *171:17 *170:7 1.946e-05
33 *171:16 *170:8 5.93e-06
34 *171:8 *170:9 5.93e-06
35 *171:16 *170:9 2.057e-05
36 *171:8 *170:10 2.057e-05
37 *171:16 *170:10 1.092e-05
38 *171:8 *170:11 1.092e-05
39 *171:16 *170:11 2.639e-05
40 *171:8 *170:12 2.639e-05
41 *171:8 *170:11 3.497e-05
42 *171:9 *170:12 3.49700119e-05

*RES
1 *573:A *171:20 0.193341
2 *171:21 *171:20 1.40001
3 *171:11 *171:21 0.193051
4 *171:4 *171:21 1.40001
5 *171:5 *171:4 0.372851
6 *171 *171:19 6.33857155
7 *171:6 *171:5 0.869987
8 *171:17 *171:19 0.124284
9 *171:7 *171:6 0.372851
10 *171:17 *171:18 0.621419
11 *171:18 *171:7 1.40001
12 *171:9 *171:18 0.124284
13 *171:16 *526:B 1.40001
14 *171:9 *171:8 1.49141
15 *171:8 *171:16 2.85853
16 *171:15 *171:8 1.40001
17 *171:14 *171:15 1.36712
18 *171:13 *171:14 1.40001
19 *171:12 *171:13 0.124284
20 *171:12 *581:Q 1.40001
21 *171:10 *171:12 0.0643181
*END

*D_NET *172 0.00384783

*CONN
*I *560:A I *C 15.805 47.705 *L 0.00184 *D DLY1X4
*P *172 O *C 0 46.545 *L 0.05
*I *580:Q O *C 26.245 49.735 *L 0 *D DFFQXL
*I *525:B I *C 32.045 45.095 *L 0.00253 *D CLKXOR2X1

*CAP
1 *560:A 3.68044e-05
2 *172 2.74016e-05
3 *580:Q 3.68044e-05
4 *525:B 3.68044e-05
5 *172:4 0.000132147
6 *172:5 0.000132147
7 *172:6 0.000227799
8 *172:7 0.000652768086
9 *172:8 0.000466017
10 *172:9 4.40159e-05
11 *172:10 0.000480549
12 *172:11 4.40657e-05
13 *172:12 0.000480549
14 *172:13 4.40657e-05
15 *172:14 5.23629e-05
16 *172:15 5.23629e-05
17 *172:16 0.000143522
18 *172:17 0.000143522
19 *172:6 *126:159 3.751e-05
20 *172:7 *126:156 3.751e-05
21 *172:6 *126:156 9.579e-05
22 *172:7 *126:157 9.579e-05
23 *172:12 *126:158 0.00013038
24 *172:10 *126 0.00013038
25 *172:13 *126:158 1.427e-05
26 *172:11 *126 1.427e-05
27 *172:9 *126:158 1.459e-05
28 *172 *126 1.459e-05
29 *172:4 *126:151 1.452e-05
30 *172:5 *126:152 1.45200173e-05

*RES
1 *172:5 *525:B 1.40001
2 *172:5 *172:4 0.745688
3 *172:17 *580:Q 1.40001
4 *172:15 *560:A 1.40001
5 *172:6 *172:4 1.40001
6 *172:16 *172:17 1.24287
7 *172:14 *172:15 0.372844
8 *172:7 *172:6 2.48574
9 *172:7 *172:16 1.40001
10 *172:8 *172:14 1.40001
11 *172:8 *172:7 4.4743
12 *172:13 *172:8 0.124252
13 *172:11 *172:13 0.372844
14 *172:11 *172:12 0.124252
15 *172:10 *172:12 5.84142876
16 *172:9 *172:10 0.124252
17 *172 *172:9 0.372844
*END

*D_NET *173 0.00440676

*CONN
*I *574:A I *C 30.305 23.925 *L 0.00155 *D DLY2X1
*P *173 O *C 43.645 0 *L 0.05
*I *579:Q O *C 38.135 18.415 *L 0 *D DFFQX1
*I *528:B I *C 43.935 26.825 *L 0.00255 *D XOR2XL

*CAP
1 *574:A 3.68049e-05
2 *173 0.000539901
3 *579:Q 3.68049e-05
4 *528:B 3.68049e-05
5 *173:4 5.77892e-05
6 *173:5 5.89842e-05
7 *173:6 9.13212e-05
8 *173:7 9.13212e-05
9 *173:8 0.00027671
10 *173:9 0.000584446523
11 *173:10 7.49208e-05
12 *173:11 7.49208e-05
13 *173:12 0.000341554
14 *173:13 5.9546e-05
15 *173:14 5.8351e-05
16 *173:15 0.000110709
17 *173:16 0.000110709
18 *173:18 0.00036615
19 *173:19 0.000571078
20 *173:20 0.000238737
21 *173:21 0.000556729
22 *173:22 3.24529e-05

*RES
1 *173:5 *579:Q 1.40001
2 *173:10 *574:A 1.40001
3 *173:5 *173:4 0.372844
4 *173 *173:21 5.84142876
5 *173:11 *173:10 0.870028
6 *173:14 *173:4 0.124252
7 *173:6 *173:21 1.40001
8 *173:12 *173:11 1.40001
9 *173:14 *173:13 0.497185
10 *173:7 *173:6 0.621436
11 *173:12 *173:9 3.23143
12 *173:9 *173:13 1.40001
13 *173:18 *173:7 1.40001
14 *173:9 *173:8 1.86431
15 *173:18 *173:19 3.35568
16 *173:19 *173:8 1.40001
17 *173:19 *173:20 2.1129
18 *173:16 *173:20 1.40001
19 *173:16 *173:15 0.745688
20 *173:22 *528:B 1.40001
21 *173:22 *173:15 1.40001
22 *173:17 *173:22 0.193062
*END

*D_NET *174 0.00626311

*CONN
*I *565:A I *C 50.895 29.435 *L 0.00184 *D DLY1X4
*P *174 O *C 34.655 0 *L 0.05
*I *592:Q O *C 33.495 28.855 *L 0 *D DFFHQX1
*I *527:B I *C 34.945 34.655 *L 0.00255 *D XOR2XL

*CAP
1 *565:A 3.68057e-05
2 *174 0.000483874
3 *592:Q 3.68057e-05
4 *527:B 3.68057e-05
5 *174:4 0.000142954
6 *174:5 0.000155238
7 *174:6 0.000128996
8 *174:7 0.000128083
9 *174:8 0.00054639
10 *174:9 0.000166629
11 *174:10 0.000166629
12 *174:11 7.21281e-05
13 *174:12 7.21281e-05
14 *174:13 0.000165335
15 *174:14 0.000165335
16 *174:15 0.00055449
17 *174:16 0.00062311
18 *174:17 0.000101755
19 *174:18 0.000198595
20 *174:19 0.000167342
21 *174:20 0.000119031
22 *174:21 0.000119031
23 *174:22 3.3706e-05
24 *174:23 0.000162863
25 *174:24 0.000162863
26 *174:25 6.16502e-05
27 *174:26 6.23348e-05
28 *174:15 *90:15 0.00026823
29 *174:16 *90:16 0.00026823
30 *174:26 *90:17 4.86e-06
31 *174:25 *90:15 4.86e-06
32 *174:13 *90:13 8.59e-06
33 *174:14 *90:14 8.58997794e-06
34 *174:22 *125:70 9.87e-06
35 *174:4 *125:71 9.87e-06
36 *174:4 *125:133 0.00015984
37 *174:5 *125:134 0.00015984
38 *174:9 *125:133 3.806e-05
39 *174:10 *125:134 3.806e-05
40 *174:9 *125:156 1.187e-05
41 *174:10 *125:157 1.18700053e-05
42 *174:4 *228:2 2.177e-05
43 *174:5 *228:3 2.177e-05
44 *174:6 *228:2 0.00017302
45 *174:7 *228:3 0.000173019998

*RES
1 *174:14 *565:A 1.40003
2 *174:14 *174:13 1.61568
3 *174:26 *174:13 1.40003
4 *174:11 *527:B 1.40003
5 *174:25 *174:26 0.86997
6 *174:12 *174:11 0.497113
7 *174:25 *174:15 0.124255
8 *174:16 *174:12 1.40003
9 *174:16 *174:15 5.96571445
10 *174 *174:8 4.84714
11 *174:17 *174:16 0.745714
12 *174:18 *174:8 0.497113
13 *174:6 *174:17 1.40003
14 *174:18 *174:19 1.61568
15 *174:7 *174:6 1.74003
16 *174:19 *174:23 0.248602
17 *174:7 *174:22 0.124255
18 *174:23 *174:24 1.11857
19 *174:4 *174:22 0.248602
20 *174:4 *592:Q 1.40003
21 *174:20 *174:24 0.248602
22 *174:5 *174:4 1.98854
23 *174:20 *174:21 0.86997
24 *174:9 *174:5 0.248602
25 *174:10 *174:21 0.248602
26 *174:10 *174:9 1.74003
*END

*D_NET *175 0.00451936

*CONN
*I *562:A I *C 45.965 52.925 *L 0.00184 *D DLY1X4
*P *175 O *C 44.805 90.19 *L 0.05
*I *591:Q O *C 41.325 49.735 *L 0 *D DFFQXL
*I *530:B I *C 40.165 47.705 *L 0.00255 *D XOR2XL

*CAP
1 *562:A 3.68161e-05
2 *175 0.00133752
3 *591:Q 3.68161e-05
4 *530:B 3.68161e-05
5 *175:4 0.000182777
6 *175:5 0.000182777
7 *175:6 0.000119866
8 *175:7 0.00013488
9 *175:8 6.79681e-05
10 *175:9 6.79681e-05
11 *175:10 0.00147298
12 *175:12 5.52915e-05
13 *175:13 0.000151737
14 *175:14 3.24557e-05
15 *175 *164:22 0.00030137
16 *175:10 *164:23 0.00030137001

*RES
1 *175:12 *530:B 1.40006
2 *175:12 *175:7 0.248556
3 *175:7 *175:6 0.869947
4 *175:6 *591:Q 1.40006
5 *175:5 *175:6 1.40006
6 *175:5 *175:4 1.49134
7 *175:13 *175:4 1.40006
8 *175:13 *175:10 1.36706
9 *175:10 *175 15.7842855
10 *175:9 *175:10 1.40006
11 *175:9 *175:8 0.497113
12 *175:14 *562:A 1.40006
13 *175:14 *175:8 1.40006
14 *175:11 *175:14 0.193161
*END

*D_NET *176 0.00478742

*CONN
*I *566:A I *C 41.325 29.435 *L 0.00184 *D DLY1X4
*P *176 O *C 37.265 0 *L 0.05
*I *590:Q O *C 31.465 22.185 *L 0 *D DFFQX1
*I *552:A I *C 41.045 24.1525 *L 0.00163 *D INVXL
*I *519:B0 I *C 40.0525 26.7525 *L 0.00163 *D AOI222XL

*CAP
1 *566:A 3.67942e-05
2 *176 0.000819889
3 *590:Q 3.67942e-05
4 *552:A 3.84771e-05
5 *519:B0 3.67942e-05
6 *176:5 0.00083552
7 *176:6 0.000309908
8 *176:7 0.00030871
9 *176:8 8.25002e-05
10 *176:9 0.000152634
11 *176:10 0.000102593
12 *176:11 0.000168978
13 *176:12 0.000168978
14 *176:13 3.33265e-05
15 *176:14 3.25233e-05
16 *176:15 0.000113761
17 *176:16 4.59992e-05
18 *176:17 0.000113761
19 *176:18 9.79012e-05
20 *176:19 5.87739e-05
21 *176:20 0.000107157
22 *176:21 0.00019746
23 *176:22 5.60583e-05
24 *176:23 0.00019746
25 *176:17 *24:4 5.822e-05
26 *176:15 *24:5 5.822e-05
27 *176:22 *24:4 4.821e-05
28 *176:20 *24:5 4.821e-05
29 *176:20 *24:4 0.00013661
30 *176:18 *24:5 0.00013661
31 *176:18 *24:4 3.677e-05
32 *176:16 *24:5 3.677e-05
33 *176:14 *24:4 3.751e-05
34 *176:13 *24:5 3.75099875e-05

*RES
1 *176:19 *552:A 0.580058
2 *176:23 *566:A 1.40002
3 *176 *176:5 7.82999992
4 *176:10 *176:19 1.40002
5 *176:8 *519:B0 1.40002
6 *176:21 *176:23 1.49142
7 *176:7 *176:5 0.124255
8 *176:10 *176:9 0.745771
9 *176:9 *176:8 0.372886
10 *176:22 *176:21 1.40002
11 *176:7 *176:6 3.1071
12 *176:20 *176:9 1.40002
13 *176:20 *176:22 0.497141
14 *176:18 *176:6 1.40002
15 *176:18 *176:20 1.36717
16 *176:16 *176:18 0.372886
17 *176:16 *176:17 0.124255
18 *176:15 *176:17 1.61568
19 *176:14 *176:15 0.124255
20 *176:13 *176:14 0.372886
21 *176:11 *176:13 1.40002
22 *176:12 *176:11 1.61568
23 *590:Q *176:12 1.40002
*END

*D_NET *177 0.00504998

*CONN
*I *561:A I *C 54.665 21.605 *L 0.00184 *D DLY1X4
*P *177 O *C 39.875 0 *L 0.05
*I *588:Q O *C 37.845 18.415 *L 0 *D DFFQXL
*I *547:A I *C 39.305 24.1525 *L 0.00163 *D INVXL
*I *519:A0 I *C 38.425 27.115 *L 0.00155 *D AOI222XL

*CAP
1 *561:A 3.68016e-05
2 *177 0.000733945
3 *588:Q 3.68016e-05
4 *547:A 3.68016e-05
5 *519:A0 3.68016e-05
6 *177:5 5.93822e-05
7 *177:6 5.84652e-05
8 *177:7 0.000765204
9 *177:8 0.000330483
10 *177:9 9.48946e-05
11 *177:10 0.0003024
12 *177:11 0.000112691
13 *177:12 0.000127855
14 *177:13 0.000127855
15 *177:14 0.000870996797
16 *177:15 0.000870996797
17 *177:17 3.24555e-05
18 *177:18 5.60729e-05
19 *177:19 4.07356e-05
20 *177:20 0.000107215
21 *177:21 0.000105567
22 *177:22 0.000105567

*RES
1 *177:5 *519:A0 1.39997
2 *177:6 *177:5 0.248621
3 *177:21 *561:A 1.39997
4 *177:6 *177:19 0.12431
5 *177:21 *177:22 0.74575
6 *177:18 *177:19 0.248621
7 *177:14 *177:22 1.39997
8 *177:18 *177:20 0.248621
9 *177 *177:7 7.33285713
10 *177:15 *177:14 6.58711
11 *177:11 *547:A 1.39997
12 *177:11 *177:20 0.74575
13 *177:9 *177:7 0.248621
14 *177:10 *177:15 1.39997
15 *177:10 *177:11 0.372819
16 *177:9 *177:8 0.372819
17 *177:8 *177:10 2.11283
18 *177:12 *177:8 1.39997
19 *177:13 *177:12 0.62144
20 *177:17 *177:13 1.39997
21 *177:17 *588:Q 1.39997
22 *177:16 *177:17 0.193011
*END

*D_NET *178 0.00509129

*CONN
*I *570:A I *C 74.965 18.705 *L 0.00155 *D DLY2X1
*P *178 O *C 51.765 0 *L 0.05
*I *587:Q O *C 50.025 18.415 *L 0 *D DFFQX1
*I *529:B I *C 50.605 21.605 *L 0.00255 *D XOR2XL

*CAP
1 *570:A 1.28209e-05
2 *178 0.000720852
3 *587:Q 3.6808e-05
4 *529:B 3.6808e-05
5 *178:4 0.000477705
6 *178:5 0.000493464
7 *178:6 0.000218676
8 *178:7 0.000202039
9 *178:8 0.000270241
10 *178:9 0.000395084
11 *178:10 0.000157779
12 *178:13 5.46942e-05
13 *178:14 0.000164004
14 *178:15 0.000149573
15 *178:16 0.00073768
16 *178:17 4.00949e-05
17 *178:18 3.24518e-05
18 *178:4 *125:103 8.56e-06
19 *178:5 *125:104 8.56e-06
20 *178:4 *125:105 1.335e-05
21 *178:5 *125:106 1.335e-05
22 *178:4 *125:107 2.186e-05
23 *178:5 *125:108 2.186e-05
24 *178:16 *125:109 7.95e-06
25 *178 *125:110 7.95e-06
26 *178:15 *125:84 0.00010004
27 *178:14 *125:109 0.00010004
28 *178:15 *125:109 3.666e-05
29 *178:14 *125:110 3.666e-05
30 *178:15 *125:111 7.95e-06
31 *178:14 *125:112 7.95000023e-06
32 *178:4 *161:8 6.186e-05
33 *178:5 *161:9 6.186e-05
34 *178:6 *161:8 3.424e-05
35 *178:7 *161:9 3.424e-05
36 *178:15 *161:10 9.87e-06
37 *178:14 *161:11 9.86999147e-06
38 *178:4 *39:14 4.435e-05
39 *178:5 *39:12 4.435e-05
40 *178:4 *39:14 3.932e-05
41 *178:5 *39:12 3.932e-05
42 *178:6 *39:14 5.925e-05
43 *178:7 *39:12 5.92500034e-05

*RES
1 *570:A *178:17 0.193301
2 *178:18 *178:17 1.40002
3 *178:12 *178:18 0.193066
4 *178:4 *178:18 1.40002
5 *178:5 *178:4 5.96577
6 *178:6 *178:5 0.248564
7 *178:7 *178:6 2.61004
8 *178 *178:16 7.70571423
9 *178:7 *178:8 0.124282
10 *178:9 *178:16 1.40002
11 *178:9 *178:8 1.49138
12 *178:15 *529:B 1.40002
13 *178:10 *178:9 0.745692
14 *178:14 *178:15 1.3671
15 *178:13 *178:10 1.40002
16 *178:13 *178:14 0.248564
17 *178:13 *587:Q 1.40002
18 *178:11 *178:13 0.193066
*END

*D_NET *179 0.00128526

*CONN
*P *179 O *C 0 63.945 *L 0.05
*I *490:Q O *C 15.225 63.945 *L 0 *D DFFQX1

*CAP
1 *179 0.000599237
2 *490:Q 3.67982e-05
3 *179:3 3.24502e-05
4 *179:4 0.00061677

*RES
1 *179 *179:4 6.33857155
2 *179:3 *179:4 1.40001
3 *179:3 *490:Q 1.40001
4 *179:2 *179:3 0.193051
*END

*D_NET *180 0.00347775

*CONN
*I *517:B0 I *C 27.405 68.875 *L 0.00265 *D AOI22X1
*I *585:SI I *C 37.555 71.195 *L 0.00172 *D SDFFQX1
*I *575:Y O *C 25.375 47.705 *L 0 *D DLY3X1

*CAP
1 *517:B0 3.6803e-05
2 *585:SI 3.6803e-05
3 *575:Y 3.6803e-05
4 *180:3 0.000166937
5 *180:4 0.000166937
6 *180:5 8.96114e-05
7 *180:6 8.96114e-05
8 *180:7 0.000372348
9 *180:8 0.00037147
10 *180:9 0.000109406
11 *180:10 0.000110283
12 *180:14 3.24568e-05
13 *180:15 0.0009129
14 *180:16 3.24568e-05
15 *180:17 0.0009129

*RES
1 *180:5 *585:SI 1.40005
2 *180:6 *180:5 0.869962
3 *180:7 *180:6 1.40005
4 *180:8 *180:7 3.47999
5 *180:16 *517:B0 1.40005
6 *180:12 *180:16 0.0300417
7 *180:9 *180:8 0.12432
8 *180:10 *180:16 1.40005
9 *180:13 *180:10 0.193125
10 *180:10 *180:9 0.869962
11 *180:17 *180:10 1.40005
12 *180:15 *180:17 9.0728569
13 *180:3 *180:15 1.40005
14 *180:4 *180:3 0.869962
15 *180:14 *180:4 1.40005
16 *180:14 *575:Y 1.40005
17 *180:11 *180:14 0.193125
*END

*D_NET *181 0.00158394

*CONN
*I *482:A I *C 43.935 16.385 *L 0.00175 *D DLY4X1
*I *810:Q O *C 50.315 23.635 *L 0 *D DFFQX1

*CAP
1 *482:A 1.28211e-05
2 *810:Q 3.67994e-05
3 *181:2 0.000162179
4 *181:3 0.000162179
5 *181:4 0.000161859
6 *181:5 0.000160951
7 *181:6 0.000200081
8 *181:7 0.00020099
9 *181:8 0.000222990879
10 *181:9 0.000222990879
11 *181:10 4.00999e-05

*RES
1 *181:8 *810:Q 1.40001
2 *181:9 *181:8 1.49143
3 *181:4 *181:9 1.40001
4 *181:5 *181:4 0.994299
5 *181:6 *181:5 0.124284
6 *181:7 *181:6 1.86428571
7 *181:2 *181:7 1.40001
8 *181:3 *181:2 1.49143
9 *181:10 *482:A 0.193324
10 *181:10 *181:3 1.40001
*END

*D_NET *182 0.00157549

*CONN
*I *489:A I *C 19.575 61.045 *L 0.00172 *D DLY3X1
*I *496:Q O *C 24.795 70.615 *L 0 *D DFFQX1

*CAP
1 *489:A 3.67977e-05
2 *496:Q 3.67977e-05
3 *182:2 0.000116639
4 *182:3 0.000116639
5 *182:4 5.57267e-05
6 *182:5 5.57267e-05
7 *182:6 5.95218e-05
8 *182:7 5.86411e-05
9 *182:8 5.85948e-05
10 *182:9 5.94754e-05
11 *182:11 3.24522e-05
12 *182:12 6.45278e-05
13 *182:13 6.45278e-05
14 *182:14 0.00037971
15 *182:15 0.00037971

*RES
1 *182:4 *496:Q 1.39998
2 *182:5 *182:4 0.37288
3 *182:6 *182:5 1.39998
4 *182:7 *182:6 0.37288
5 *182:2 *182:7 0.124312
6 *182:3 *182:2 0.994271
7 *182:3 *182:8 0.124312
8 *182:9 *182:8 0.37288
9 *182:15 *182:9 1.39998
10 *182:14 *182:15 3.72857141
11 *182:13 *182:14 1.39998
12 *182:12 *182:13 0.497135
13 *182:11 *489:A 1.39998
14 *182:11 *182:12 1.39998
15 *182:10 *182:11 0.19304
*END

*D_NET *183 0.00243997

*CONN
*I *488:A I *C 28.565 42.195 *L 0.00172 *D DLY3X1
*I *495:Q O *C 26.825 60.175 *L 0 *D DFFQX1

*CAP
1 *488:A 3.67925e-05
2 *495:Q 3.67925e-05
3 *183:2 0.000962025
4 *183:3 0.00100887
5 *183:5 3.24513e-05
6 *183:6 4.1026e-05
7 *183:7 4.1026e-05
8 *183:8 0.000117059
9 *183:9 0.000163904

*RES
1 *183:8 *488:A 1.40003
2 *183:8 *183:9 1.1186
3 *183:3 *183:9 0.497131
4 *183:3 *183:2 6.58714294
5 *183:7 *183:2 1.40003
6 *183:6 *183:7 0.248566
7 *183:5 *183:6 1.40003
8 *183:5 *495:Q 1.40003
9 *183:4 *183:5 0.193083
*END

*D_NET *184 0.000678398

*CONN
*I *483:A I *C 20.735 68.295 *L 0.00172 *D DLY3X1
*I *494:Q O *C 21.025 74.385 *L 0 *D DFFQX1

*CAP
1 *483:A 3.67993e-05
2 *494:Q 3.67993e-05
3 *184:2 0.000165169492
4 *184:3 0.00016397
5 *184:4 0.000137229
6 *184:5 0.000138429

*RES
1 *184:5 *494:Q 1.39999998
2 *184:4 *184:5 0.994287
3 *184:3 *184:4 0.124286
4 *184:2 *184:3 0.994287
5 *483:A *184:2 1.39999998
*END

*D_NET *185 0.00120412

*CONN
*I *484:A I *C 30.015 73.515 *L 0.00172 *D DLY3X1
*I *493:Q O *C 21.315 74.385 *L 0 *D DFFQX1

*CAP
1 *484:A 3.67969e-05
2 *493:Q 3.67969e-05
3 *185:2 6.27323e-05
4 *185:3 0.00040536
5 *185:4 6.27323e-05
6 *185:5 9.71726e-05
7 *185:6 0.00040536
8 *185:7 9.71726e-05

*RES
1 *185:5 *484:A 1.4
2 *185:5 *185:7 0.869965
3 *185:6 *185:7 1.4
4 *185:3 *185:6 5.80000019
5 *185:4 *185:3 1.4
6 *185:2 *185:4 0.49711
7 *493:Q *185:2 1.4
*END

*D_NET *186 0.000622152

*CONN
*I *544:Y O *C 28.4825 68.875 *L 0 *D CLKINVX1
*I *534:B I *C 27.405 65.975 *L 0.00167 *D NAND2XL
*I *517:B1 I *C 27.115 68.875 *L 0.00283 *D AOI22X1

*CAP
1 *544:Y 2.56602e-05
2 *534:B 3.67995e-05
3 *517:B1 3.67995e-05
4 *186:3 0.00014609
5 *186:4 8.99612e-05
6 *186:5 4.16413e-05
7 *186:6 4.16413e-05
8 *186:7 4.04687e-05
9 *186:8 7.36391e-05
10 *186:9 4.59615e-05
11 *186:10 4.34915e-05

*RES
1 *186:9 *544:Y 0.386658
2 *186:10 *186:9 1.39999998
3 *186:6 *534:B 1.39999998
4 *186:5 *517:B1 1.39999998
5 *186:8 *186:10 0.248572
6 *186:6 *186:7 0.248572
7 *186:3 *186:5 0.248572
8 *186:3 *186:8 0.372858
9 *186:4 *186:7 0.124286
10 *186:4 *186:3 0.745715
*END

*D_NET *187 0.00116494

*CONN
*I *554:Y O *C 19.2025 65.685 *L 0 *D INVX1
*I *517:A0 I *C 26.245 68.585 *L 0.00263 *D AOI22X1

*CAP
1 *554:Y 3.68002e-05
2 *517:A0 3.68002e-05
3 *187:2 4.44801e-05
4 *187:3 4.32968e-05
5 *187:4 8.79687e-05
6 *187:5 8.91473e-05
7 *187:6 0.00030652
8 *187:7 0.00030652
9 *187:8 0.000106701
10 *187:9 0.000106701

*RES
1 *187:2 *517:A0 1.40002
2 *187:3 *187:2 0.248581
3 *187:4 *187:3 0.124269
4 *187:5 *187:4 0.497162
5 *187:6 *187:5 1.40002
6 *187:7 *187:6 2.85857153
7 *187:9 *187:7 1.40002
8 *187:8 *187:9 0.497162
9 *554:Y *187:8 1.40002
*END

*D_NET *188 0.00043636

*CONN
*I *553:Y O *C 17.6275 26.825 *L 0 *D INVXL
*I *518:C0 I *C 19.865 27.405 *L 0.00166 *D AOI222XL

*CAP
1 *553:Y 5.18006e-05
2 *518:C0 3.67987e-05
3 *188:2 7.20998e-05
4 *188:3 5.23496e-05
5 *188:4 9.80404883e-05
6 *188:5 3.97907e-05
7 *188:6 8.54801e-05

*RES
1 *188:5 *518:C0 1.39999998
2 *188:5 *188:6 0.248572
3 *188:4 *188:6 0.497144
4 *188:3 *188:4 0.372858
5 *188:2 *188:3 1.39999998
6 *553:Y *188:2 0.773337
*END

*D_NET *189 0.000705659

*CONN
*I *552:Y O *C 41.4075 24.215 *L 0 *D INVXL
*I *519:C0 I *C 40.455 27.405 *L 0.00166 *D AOI222XL

*CAP
1 *552:Y 3.68002e-05
2 *519:C0 3.68002e-05
3 *189:2 0.00023621
4 *189:3 0.00020615
5 *189:4 7.98216e-05
6 *189:5 0.000109882

*RES
1 *189:4 *552:Y 1.39999998
2 *189:3 *519:C0 1.39999998
3 *189:4 *189:5 0.372858
4 *189:2 *189:3 0.870001
5 *189:2 *189:5 0.372858
*END

*D_NET *190 0.00120021

*CONN
*I *551:Y O *C 44.1425 60.465 *L 0 *D INVX1
*I *516:B1 I *C 41.615 60.465 *L 0.00268 *D AOI221X1
*I *513:B1 I *C 40.165 58.435 *L 0.00274 *D OAI221X1

*CAP
1 *551:Y 3.91983e-05
2 *516:B1 3.67985e-05
3 *513:B1 3.67985e-05
4 *190:3 4.62107e-05
5 *190:4 4.62107e-05
6 *190:5 2.55417e-05
7 *190:6 2.55417e-05
8 *190:7 0.00012438
9 *190:8 0.00012438
10 *190:9 0.000107849
11 *190:10 0.00016537
12 *190:11 9.13288e-05
13 *190:13 5.95014e-05
14 *190:5 *146:15 1.256e-05
15 *190:6 *146:16 1.256e-05
16 *190:7 *146:13 0.00012299
17 *190:8 *146:14 0.000122990007

*RES
1 *190:13 *551:Y 0.580008
2 *190:8 *513:B1 1.39999998
3 *190:4 *190:13 1.39999998
4 *190:8 *190:7 1.24286
5 *190:4 *190:3 0.248572
6 *190:11 *190:7 1.39999998
7 *190:9 *190:3 1.39999998
8 *190:11 *190:10 0.621429
9 *190:10 *190:9 0.745715
10 *190:5 *190:10 1.39999998
11 *190:6 *516:B1 1.39999998
12 *190:6 *190:5 0.124286
13 *190:12 *190:6 0.0643219
*END

*D_NET *191 0.0011383

*CONN
*I *550:Y O *C 31.2575 53.215 *L 0 *D INVX1
*I *510:A1 I *C 33.785 50.315 *L 0.00274 *D OAI21X1
*I *509:A1 I *C 32.045 47.995 *L 0.00279 *D AOI211X1

*CAP
1 *550:Y 3.67995e-05
2 *510:A1 3.67995e-05
3 *509:A1 3.67995e-05
4 *191:3 5.0069e-05
5 *191:4 4.93894e-05
6 *191:5 0.00018872
7 *191:6 0.000103119
8 *191:7 4.36099e-05
9 *191:8 4.42895e-05
10 *191:10 5.476e-05
11 *191:11 4.33104e-05
12 *191:12 5.89701e-05
13 *191:13 0.000116889
14 *191:14 3.24511e-05
15 *191:3 *145:21 8.56e-06
16 *191:4 *145:9 8.56e-06
17 *191:5 *145:8 4.979e-05
18 *191:6 *145:6 4.979e-05
19 *191:5 *145:6 6.281e-05
20 *191:6 *145:7 6.28099966e-05

*RES
1 *191:10 *550:Y 1.39999998
2 *191:10 *191:12 0.248572
3 *191:11 *191:12 0.248572
4 *191:6 *509:A1 1.39999998
5 *191:11 *191:13 0.124286
6 *191:6 *191:5 1.24286
7 *191:5 *191:13 0.870001
8 *191:8 *191:5 1.39999998
9 *191:8 *191:7 0.372858
10 *191:4 *191:7 0.124286
11 *191:4 *191:3 0.372858
12 *191:14 *510:A1 1.39999998
13 *191:14 *191:3 1.39999998
14 *191:9 *191:14 0.193051
*END

*D_NET *192 0.00041546

*CONN
*I *549:Y O *C 41.5325 27.115 *L 0 *D INVX1
*I *519:A1 I *C 39.005 27.115 *L 0.00161 *D AOI222XL

*CAP
1 *549:Y 3.67991e-05
2 *519:A1 3.67991e-05
3 *192:2 0.00013848
4 *192:3 0.00013848
5 *192:6 3.24504e-05
6 *192:7 3.24504e-05

*RES
1 *192:5 *192:7 0.193051
2 *192:7 *549:Y 1.39999998
3 *192:2 *192:7 1.39999998
4 *192:3 *192:2 1.11857
5 *192:6 *519:A1 1.39999998
6 *192:6 *192:3 1.39999998
7 *192:4 *192:6 0.193051
*END

*D_NET *193 0.00037474

*CONN
*I *548:Y O *C 40.8275 68.585 *L 0 *D INVXL
*I *520:A1 I *C 42.485 68.585 *L 0.00276 *D OAI22X1

*CAP
1 *548:Y 3.89604e-05
2 *520:A1 3.68003e-05
3 *193:2 5.92604e-05
4 *193:3 4.33799e-05
5 *193:4 7.35306e-05
6 *193:5 4.633e-05
7 *193:6 7.64795898e-05

*RES
1 *193:5 *520:A1 1.39999998
2 *193:5 *193:6 0.248572
3 *193:4 *193:6 0.372858
4 *193:3 *193:4 0.248572
5 *193:2 *193:3 1.39999998
6 *548:Y *193:2 0.580008
*END

*D_NET *194 0.000736898

*CONN
*I *547:Y O *C 39.6675 24.215 *L 0 *D INVXL
*I *515:A1 I *C 43.355 23.925 *L 0.00279 *D AOI211X1

*CAP
1 *547:Y 3.67979e-05
2 *515:A1 3.67979e-05
3 *194:2 0.0002992
4 *194:3 0.0002992
5 *194:6 3.24516e-05
6 *194:7 3.24516e-05

*RES
1 *194:7 *515:A1 1.39999
2 *194:5 *194:7 0.193064
3 *194:2 *194:7 1.39999
4 *194:3 *194:2 1.61571431
5 *194:6 *194:3 1.39999
6 *194:6 *547:Y 1.39999
7 *194:4 *194:6 0.0300037
*END

*D_NET *195 0.000446579

*CONN
*I *546:Y O *C 20.5275 23.925 *L 0 *D INVX1
*I *518:B1 I *C 20.735 27.115 *L 0.00162 *D AOI222XL

*CAP
1 *546:Y 3.67995e-05
2 *518:B1 3.67995e-05
3 *195:2 7.07511e-05
4 *195:3 6.95502e-05
5 *195:4 0.000115739
6 *195:5 0.00011694

*RES
1 *195:5 *518:B1 1.39999998
2 *195:4 *195:5 0.994287
3 *195:3 *195:4 0.124286
4 *195:2 *195:3 0.372858
5 *546:Y *195:2 1.39999998
*END

*D_NET *196 0.00109535

*CONN
*I *545:Y O *C 44.1425 58.435 *L 0 *D INVX1
*I *516:A1 I *C 41.035 60.465 *L 0.00267 *D AOI221X1
*I *513:A1 I *C 39.585 58.145 *L 0.00265 *D OAI221X1

*CAP
1 *545:Y 2.56604e-05
2 *516:A1 3.68008e-05
3 *513:A1 3.68008e-05
4 *196:3 0.000102949
5 *196:4 0.000102949
6 *196:6 0.000145631
7 *196:7 0.00014446
8 *196:8 3.91009e-05
9 *196:9 6.83809e-05
10 *196:10 3.24484e-05
11 *196:11 0.0001709
12 *196:12 5.29403e-05
13 *196:13 0.000136329

*RES
1 *196:6 *513:A1 1.39999998
2 *196:12 *545:Y 0.386658
3 *196:6 *196:7 0.994287
4 *196:4 *196:12 1.39999998
5 *196:7 *196:8 0.124286
6 *196:4 *196:3 0.870001
7 *196:9 *196:8 1.39999998
8 *196:13 *196:3 1.39999998
9 *196:9 *196:11 0.497144
10 *196:11 *196:13 1.11857
11 *196:10 *516:A1 1.39999998
12 *196:10 *196:11 1.39999998
13 *196:5 *196:10 0.0299927
*END

*D_NET *197 0.000952662

*CONN
*I *543:Y O *C 19.7825 47.995 *L 0 *D INVX1
*I *524:A1 I *C 21.895 50.315 *L 0.00276 *D OAI22X1
*I *508:A1 I *C 24.215 50.025 *L 0.00279 *D AOI211X1

*CAP
1 *543:Y 3.68005e-05
2 *524:A1 3.68005e-05
3 *508:A1 3.68005e-05
4 *197:3 0.000118621
5 *197:4 0.000118621
6 *197:5 0.00015686
7 *197:6 7.22583e-05
8 *197:8 3.24515e-05
9 *197:9 0.00011252
10 *197:10 0.00011841
11 *197:11 0.00011252

*RES
1 *197:11 *508:A1 1.39999998
2 *197:3 *524:A1 1.39999998
3 *197:9 *197:11 0.994287
4 *197:4 *197:3 0.994287
5 *197:10 *197:9 1.39999998
6 *197:5 *197:4 1.39999998
7 *197:5 *197:10 0.994287
8 *197:6 *197:5 0.870001
9 *197:8 *197:6 1.39999998
10 *197:8 *543:Y 1.39999998
11 *197:7 *197:8 0.193051
*END

*D_NET *198 0.00037032

*CONN
*I *542:Y O *C 28.0675 26.825 *L 0 *D INVXL
*I *514:A1 I *C 29.435 27.115 *L 0.00279 *D AOI211X1

*CAP
1 *542:Y 3.6799e-05
2 *514:A1 3.6799e-05
3 *198:2 0.00011591
4 *198:3 0.00011591
5 *198:6 3.24498e-05
6 *198:7 3.24498e-05

*RES
1 *198:7 *514:A1 1.39999998
2 *198:5 *198:7 0.193051
3 *198:2 *198:7 1.39999998
4 *198:3 *198:2 0.621429
5 *198:6 *198:3 1.39999998
6 *198:6 *542:Y 1.39999998
7 *198:4 *198:6 0.193051
*END

*D_NET *199 0.000444041

*CONN
*I *541:Y O *C 19.3675 53.215 *L 0 *D INVX1
*I *524:B1 I *C 21.315 50.315 *L 0.00282 *D OAI22X1

*CAP
1 *541:Y 2.56608e-05
2 *524:B1 3.67998e-05
3 *199:2 0.00012934
4 *199:3 5.29399e-05
5 *199:4 6.80103e-05
6 *199:5 3.49801e-05
7 *199:6 9.63098e-05

*RES
1 *199:5 *524:B1 1.39999998
2 *199:5 *199:6 0.248572
3 *199:2 *199:6 0.621429
4 *199:2 *199:4 0.870001
5 *199:3 *199:4 1.39999998
6 *541:Y *199:3 0.386658
*END

*D_NET *200 0.000462681

*CONN
*I *540:Y O *C 42.1125 65.685 *L 0 *D INVX1
*I *523:A1 I *C 41.615 63.365 *L 0.00276 *D OAI22X1

*CAP
1 *540:Y 2.58211e-05
2 *523:A1 3.68009e-05
3 *200:2 0.00017697
4 *200:3 4.61199e-05
5 *200:4 0.00017697

*RES
1 *200:3 *540:Y 0.386658
2 *200:4 *200:3 1.39999998
3 *200:2 *200:4 0.994287
4 *523:A1 *200:2 1.39999998
*END

*D_NET *201 0.000362391

*CONN
*I *539:Y O *C 40.3725 29.145 *L 0 *D INVX1
*I *519:B1 I *C 39.585 27.115 *L 0.00162 *D AOI222XL

*CAP
1 *539:Y 2.56611e-05
2 *519:B1 3.67997e-05
3 *201:2 3.93599e-05
4 *201:3 0.000106851
5 *201:4 4.59602e-05
6 *201:5 0.00010776

*RES
1 *201:4 *539:Y 0.386658
2 *201:5 *201:4 1.39999998
3 *201:3 *201:5 0.870001
4 *201:2 *201:3 0.124286
5 *519:B1 *201:2 1.39999998
*END

*D_NET *202 0.00024616

*CONN
*I *538:Y O *C 23.2625 27.115 *L 0 *D INVX1
*I *518:A1 I *C 21.315 27.115 *L 0.00161 *D AOI222XL

*CAP
1 *538:Y 3.89601e-05
2 *518:A1 1.64002e-05
3 *202:2 6.772e-05
4 *202:3 6.772e-05
5 *202:4 5.53602e-05

*RES
1 *202:4 *538:Y 0.58
2 *202:3 *202:4 0.193333
3 *202:2 *518:A1 0.193333
4 *202:2 *202:3 0.773333311
*END

*D_NET *203 0.000923097

*CONN
*I *537:Y O *C 18.6225 50.315 *L 0 *D INVXL
*I *507:A1 I *C 24.795 52.925 *L 0.00169 *D OAI211XL

*CAP
1 *537:Y 3.67995e-05
2 *507:A1 3.67995e-05
3 *203:2 6.35113e-05
4 *203:3 6.35113e-05
5 *203:4 0.00027477
6 *203:5 0.00027477
7 *203:6 8.64707e-05
8 *203:7 8.64707e-05

*RES
1 *203:7 *507:A1 1.39998
2 *203:6 *203:7 0.497141
3 *203:4 *203:6 1.39998
4 *203:5 *203:4 2.6099999
5 *203:2 *203:5 1.39998
6 *203:3 *203:2 0.621436
7 *537:Y *203:3 1.39998
*END

*D_NET *204 0.00051482

*CONN
*I *536:Y O *C 43.2725 65.685 *L 0 *D INVX1
*I *523:B1 I *C 42.195 63.365 *L 0.00282 *D OAI22X1

*CAP
1 *536:Y 2.6619e-05
2 *523:B1 3.68001e-05
3 *204:2 0.00011868
4 *204:3 0.000104191
5 *204:4 9.45601e-05
6 *204:5 5.39008e-05
7 *204:6 8.00707e-05

*RES
1 *204:5 *536:Y 0.386658
2 *204:6 *204:5 1.39999998
3 *204:4 *204:6 0.372858
4 *204:2 *204:4 0.248572
5 *204:3 *204:2 0.745715
6 *523:B1 *204:3 1.39999998
*END

*D_NET *205 0.000616398

*CONN
*I *535:Y O *C 45.4675 71.195 *L 0 *D INVXL
*I *520:B1 I *C 43.065 68.585 *L 0.00282 *D OAI22X1

*CAP
1 *535:Y 3.68005e-05
2 *520:B1 3.68005e-05
3 *205:2 5.99989e-05
4 *205:3 5.99989e-05
5 *205:4 7.69891e-05
6 *205:5 7.69891e-05
7 *205:6 0.00013441
8 *205:7 0.00013441

*RES
1 *205:4 *535:Y 1.39999998
2 *205:5 *205:4 0.745715
3 *205:7 *205:5 1.39999998
4 *205:6 *205:7 0.994287
5 *205:2 *205:6 1.39999998
6 *205:3 *205:2 0.497144
7 *520:B1 *205:3 1.39999998
*END

*D_NET *206 0.00247921

*CONN
*I *534:Y O *C 27.405 65.395 *L 0 *D NAND2XL
*I *522:B I *C 32.045 65.975 *L 0.00167 *D NAND2XL
*I *511:A I *C 41.615 58.435 *L 0.00273 *D NOR4X1
*I *502:B I *C 28.28 63.025 *L 0.00164 *D MXI2XL

*CAP
1 *534:Y 1.28232e-05
2 *522:B 3.67998e-05
3 *511:A 3.67998e-05
4 *502:B 3.67998e-05
5 *206:4 4.64495e-05
6 *206:5 0.000111151
7 *206:6 0.000265572
8 *206:7 0.000234497
9 *206:8 6.11029e-05
10 *206:9 6.11029e-05
11 *206:10 0.00040383
12 *206:11 0.00040383
13 *206:12 0.00012337
14 *206:13 0.00012337
15 *206:14 9.59924e-05
16 *206:15 6.79736e-05
17 *206:16 3.3121e-05
18 *206:17 3.90982e-05
19 *206:18 6.70863e-05
20 *206:19 4.23888e-05
21 *206:20 5.47621e-05
22 *206:21 4.32699e-05
23 *206:22 7.80239e-05

*RES
1 *206:9 *511:A 1.40002
2 *206:9 *206:8 0.372846
3 *206:10 *206:8 1.40002
4 *206:11 *206:10 3.85285711
5 *206:20 *522:B 1.40002
6 *206:7 *206:11 1.40002
7 *206:20 *206:22 0.248564
8 *206:7 *206:6 2.36142
9 *206:6 *206:22 0.497128
10 *206:21 *206:6 1.40002
11 *206:19 *206:21 0.372846
12 *206:12 *206:19 0.124282
13 *206:13 *206:12 1.1186
14 *206:17 *502:B 1.40002
15 *206:13 *206:18 0.124282
16 *206:14 *206:17 0.124282
17 *206:15 *206:18 0.497128
18 *206:14 *206:5 0.745692
19 *206:5 *206:15 1.40002
20 *206:5 *206:4 0.497128
21 *206:16 *206:4 1.40002
22 *534:Y *206:16 0.19336
*END

*D_NET *207 0.000900079

*CONN
*I *533:Y O *C 23.925 66.265 *L 0 *D NOR2XL
*I *517:A1 I *C 26.535 69.165 *L 0.00279 *D AOI22X1
*I *503:B I *C 22.19 66.315 *L 0.00164 *D MXI2XL

*CAP
1 *533:Y 3.68002e-05
2 *517:A1 3.68002e-05
3 *503:B 3.68002e-05
4 *207:3 5.91795e-05
5 *207:4 0.00013614
6 *207:5 4.164e-05
7 *207:6 0.00014986
8 *207:7 9.58788e-05
9 *207:8 0.00017408
10 *207:9 0.0001329

*RES
1 *207:9 *517:A1 1.39999998
2 *207:8 *207:9 0.870001
3 *207:5 *533:Y 1.39999998
4 *207:7 *207:8 0.994287
5 *207:5 *207:6 0.248572
6 *207:6 *207:7 0.248572
7 *207:4 *207:6 0.745715
8 *207:3 *207:4 0.248572
9 *503:B *207:3 1.39999998
*END

*D_NET *208 0.000451961

*CONN
*I *532:Y O *C 20.155 66.265 *L 0 *D NOR2XL
*I *505:A0 I *C 21.895 63.655 *L 0.00271 *D OAI21X1

*CAP
1 *532:Y 3.68005e-05
2 *505:A0 2.56602e-05
3 *208:2 0.000104339
4 *208:3 5.86494e-05
5 *208:4 4.59609e-05
6 *208:5 6.74301e-05
7 *208:6 0.00011312

*RES
1 *208:4 *505:A0 0.386658
2 *208:5 *208:4 1.39999998
3 *208:5 *208:6 0.745715
4 *208:3 *532:Y 1.39999998
5 *208:2 *208:6 0.497144
6 *208:2 *208:3 0.497144
*END

*D_NET *209 0.000462681

*CONN
*I *531:Y O *C 25.375 60.175 *L 0 *D NAND2XL
*I *506:B0 I *C 25.375 63.365 *L 0.00279 *D OAI211X1

*CAP
1 *531:Y 3.68012e-05
2 *506:B0 3.68012e-05
3 *209:2 0.000133309
4 *209:3 0.00013451
5 *209:4 6.12299e-05
6 *209:5 6.00313e-05

*RES
1 *209:4 *531:Y 1.39999998
2 *209:3 *506:B0 1.39999998
3 *209:4 *209:5 0.248572
4 *209:2 *209:3 0.745715
5 *209:2 *209:5 0.124286
*END

*D_NET *210 0.00152714

*CONN
*I *530:Y O *C 38.425 48.285 *L 0 *D XOR2XL
*I *511:C I *C 42.775 58.145 *L 0.00274 *D NOR4X1

*CAP
1 *530:Y 3.67997e-05
2 *511:C 3.67997e-05
3 *210:2 7.08408e-05
4 *210:3 7.08408e-05
5 *210:4 0.00016678
6 *210:5 0.000134981
7 *210:6 0.000166042
8 *210:7 0.000202439785
9 *210:8 0.00016678
10 *210:9 0.000201529
11 *210:10 0.00015173
12 *210:11 0.000121581

*RES
1 *210:11 *511:C 1.39999
2 *210:10 *210:11 1.11857
3 *210:6 *210:10 0.372865
4 *210:5 *210:6 1.36715
5 *210:5 *210:9 0.12428
6 *210:7 *210:9 1.24285
7 *210:8 *210:7 1.39999
8 *210:4 *210:8 1.61571431
9 *210:2 *210:4 1.39999
10 *210:3 *210:2 0.372865
11 *530:Y *210:3 1.39999
*END

*D_NET *211 0.00109683

*CONN
*I *529:Y O *C 48.865 22.185 *L 0 *D XOR2XL
*I *515:B0 I *C 43.645 23.925 *L 0.00277 *D AOI211X1

*CAP
1 *529:Y 3.68002e-05
2 *515:B0 3.68002e-05
3 *211:2 0.00010481
4 *211:3 0.000103899
5 *211:4 0.00018837
6 *211:5 0.00018837
7 *211:7 5.83405e-05
8 *211:8 8.22694e-05
9 *211:9 5.7139e-05
10 *211:10 6.25112e-05
11 *211:11 6.37098e-05
12 *211:12 8.13611e-05
13 *211:13 3.24484e-05

*RES
1 *211:11 *515:B0 1.39999
2 *211:10 *211:11 0.621436
3 *211:9 *211:10 0.124278
4 *211:7 *211:9 0.372857
5 *211:8 *211:7 1.39999
6 *211:8 *211:12 0.372857
7 *211:5 *211:12 0.124278
8 *211:5 *211:4 1.49142861
9 *211:4 *211:3 0.124278
10 *211:3 *211:2 0.497135
11 *211:13 *211:2 1.39999
12 *211:13 *529:Y 1.39999
13 *211:6 *211:13 0.0299942
*END

*D_NET *212 0.00087593

*CONN
*I *528:Y O *C 42.195 27.405 *L 0 *D XOR2XL
*I *515:C0 I *C 44.225 23.925 *L 0.00281 *D AOI211X1

*CAP
1 *528:Y 3.67995e-05
2 *515:C0 3.67995e-05
3 *212:2 0.00020037
4 *212:3 0.00020037
5 *212:4 5.67188e-05
6 *212:5 5.67188e-05
7 *212:6 3.93586e-05
8 *212:7 0.000124851
9 *212:8 0.00012394

*RES
1 *212:5 *515:C0 1.39999998
2 *212:5 *212:4 0.497144
3 *212:2 *212:4 1.39999998
4 *212:3 *212:2 0.745715
5 *212:7 *212:3 1.39999998
6 *212:7 *212:8 0.745715
7 *212:6 *212:8 0.124286
8 *528:Y *212:6 1.39999998
*END

*D_NET *213 0.00146812

*CONN
*I *527:Y O *C 36.685 34.075 *L 0 *D XOR2XL
*I *514:B0 I *C 29.725 27.115 *L 0.00277 *D AOI211X1

*CAP
1 *527:Y 3.68017e-05
2 *514:B0 3.68017e-05
3 *213:2 0.000132531
4 *213:3 0.000131851
5 *213:4 0.00015429
6 *213:5 0.00015429
7 *213:6 0.000188279
8 *213:7 0.000188279
9 *213:8 0.00022284
10 *213:9 0.00022216

*RES
1 *213:4 *527:Y 1.40001
2 *213:5 *213:4 1.36715
3 *213:2 *213:5 1.40001
4 *213:3 *213:2 1.11858
5 *213:9 *213:3 0.124284
6 *213:8 *213:9 1.86428571
7 *213:7 *213:8 1.40001
8 *213:6 *213:7 1.61572
9 *514:B0 *213:6 1.40001
*END

*D_NET *214 0.00058204

*CONN
*I *526:Y O *C 27.405 27.405 *L 0 *D XOR2XL
*I *514:C0 I *C 30.305 27.115 *L 0.00281 *D AOI211X1

*CAP
1 *526:Y 3.68008e-05
2 *514:C0 3.68008e-05
3 *214:3 0.00015301
4 *214:4 4.04501e-05
5 *214:5 5.81104e-05
6 *214:6 4.04501e-05
7 *214:7 3.97894e-05
8 *214:8 0.000136839
9 *214:9 3.97894e-05

*RES
1 *214:9 *514:C0 1.39999998
2 *214:7 *214:9 0.248572
3 *214:8 *214:7 1.39999998
4 *214:3 *214:8 1.24286
5 *214:3 *214:5 0.248572
6 *214:4 *214:5 1.39999998
7 *214:4 *214:6 0.124286
8 *214:6 *526:Y 1.39999998
9 *214:2 *214:6 0.18284
*END

*D_NET *215 0.00069505

*CONN
*I *525:Y O *C 30.015 44.515 *L 0 *D CLKXOR2X1
*I *509:B0 I *C 32.335 47.995 *L 0.00277 *D AOI211X1

*CAP
1 *525:Y 3.67995e-05
2 *509:B0 3.67995e-05
3 *215:2 0.00019441
4 *215:3 0.00019441
5 *215:5 3.24506e-05
6 *215:6 0.00010009
7 *215:7 0.00010009

*RES
1 *215:2 *509:B0 1.39999998
2 *215:3 *215:2 1.11857
3 *215:7 *215:3 1.39999998
4 *215:6 *215:7 0.994287
5 *215:5 *215:6 1.39999998
6 *215:5 *525:Y 1.39999998
7 *215:4 *215:5 0.193051
*END

*D_NET *216 0.000529169

*CONN
*I *524:Y O *C 21.605 50.895 *L 0 *D OAI22X1
*I *508:B0 I *C 24.505 50.025 *L 0.00277 *D AOI211X1

*CAP
1 *524:Y 3.68016e-05
2 *508:B0 3.68016e-05
3 *216:3 3.2449e-05
4 *216:4 0.00015751
5 *216:5 5.40488e-05
6 *216:6 5.40488e-05
7 *216:7 0.00015751

*RES
1 *216:5 *508:B0 1.39999998
2 *216:5 *216:6 0.372858
3 *216:7 *216:6 1.39999998
4 *216:4 *216:7 1.24286
5 *216:3 *216:4 1.39999998
6 *216:3 *524:Y 1.39999998
7 *216:2 *216:3 0.193051
*END

*D_NET *217 0.00035506

*CONN
*I *523:Y O *C 41.905 62.785 *L 0 *D OAI22X1
*I *516:C0 I *C 42.195 60.755 *L 0.00277 *D AOI221X1

*CAP
1 *523:Y 3.67994e-05
2 *516:C0 3.67994e-05
3 *217:2 4.06199e-05
4 *217:3 4.179e-05
5 *217:4 0.00010011
6 *217:5 9.89399e-05

*RES
1 *217:4 *516:C0 1.39999998
2 *217:4 *217:5 0.497144
3 *217:3 *523:Y 1.39999998
4 *217:2 *217:5 0.124286
5 *217:2 *217:3 0.248572
*END

*D_NET *218 0.000593311

*CONN
*I *522:Y O *C 32.045 65.395 *L 0 *D NAND2XL
*I *501:B I *C 29.73 66.315 *L 0.00164 *D MXI2XL

*CAP
1 *522:Y 3.68015e-05
2 *501:B 3.68015e-05
3 *218:2 0.00016569
4 *218:3 0.00016569
5 *218:5 7.79414e-05
6 *218:6 7.79414e-05
7 *218:7 3.24503e-05

*RES
1 *218:6 *501:B 1.39999998
2 *218:5 *218:6 0.372858
3 *218:3 *218:5 1.39999998
4 *218:3 *218:2 0.994287
5 *218:7 *218:2 1.39999998
6 *218:7 *522:Y 1.39999998
7 *218:4 *218:7 0.193051
*END

*D_NET *219 0.00076958

*CONN
*I *521:Y O *C 19.895 70.82 *L 0 *D OAI2BB1XL
*I *504:B I *C 16.67 68.245 *L 0.00164 *D MXI2XL

*CAP
1 *521:Y 3.67999e-05
2 *504:B 3.67999e-05
3 *219:2 0.000129611
4 *219:3 0.000129611
5 *219:4 8.59507e-05
6 *219:5 8.59507e-05
7 *219:6 0.00013243
8 *219:7 0.00013243

*RES
1 *219:2 *521:Y 1.39999998
2 *219:3 *219:2 0.497144
3 *219:7 *219:3 1.39999998
4 *219:6 *219:7 1.36714
5 *219:4 *219:6 1.39999998
6 *219:5 *219:4 0.621429
7 *504:B *219:5 1.39999998
*END

*D_NET *220 0.0010558

*CONN
*I *520:Y O *C 42.775 68.005 *L 0 *D OAI22X1
*I *511:B I *C 42.195 58.145 *L 0.00273 *D NOR4X1

*CAP
1 *520:Y 3.68012e-05
2 *511:B 3.68012e-05
3 *220:2 9.95699e-05
4 *220:3 0.00010074
5 *220:4 9.55198e-05
6 *220:5 9.55198e-05
7 *220:6 0.00020496
8 *220:7 0.00020496
9 *220:8 8.98809e-05
10 *220:9 9.10506e-05

*RES
1 *220:9 *520:Y 1.39999
2 *220:8 *220:9 0.621436
3 *220:8 *220:6 0.124278
4 *220:7 *220:6 1.49142861
5 *220:4 *220:7 0.124278
6 *220:5 *220:4 1.11857
7 *220:2 *220:5 0.124278
8 *220:3 *220:2 0.869992
9 *511:B *220:3 1.39999
*END

*D_NET *221 0.00139561

*CONN
*I *519:Y O *C 39.295 27.695 *L 0 *D AOI222XL
*I *512:B I *C 32.045 27.405 *L 0.00158 *D NAND4XL

*CAP
1 *519:Y 3.67971e-05
2 *512:B 3.67971e-05
3 *221:2 4.16369e-05
4 *221:3 4.16369e-05
5 *221:4 3.3007e-05
6 *221:5 3.96173e-05
7 *221:6 0.00058305
8 *221:7 0.00058305

*RES
1 *221:3 *512:B 1.40001
2 *221:3 *221:2 0.248577
3 *221:7 *221:2 1.40001
4 *221:7 *221:6 3.10714293
5 *221:4 *221:6 1.40001
6 *221:5 *221:4 0.124265
7 *221:5 *519:Y 1.40001
8 *221:8 *221:5 0.0643371
*END

*D_NET *222 0.00132208

*CONN
*I *518:Y O *C 21.025 27.695 *L 0 *D AOI222XL
*I *512:A I *C 31.755 27.405 *L 0.00152 *D NAND4XL

*CAP
1 *518:Y 3.67998e-05
2 *512:A 3.67998e-05
3 *222:2 0.00026231
4 *222:3 0.00026163
5 *222:4 0.00017043
6 *222:5 0.000170202
7 *222:8 0.00013899
8 *222:9 3.2449e-05
9 *222:10 4.10306e-05
10 *222:11 0.00013899
11 *222:12 3.2449e-05

*RES
1 *222:12 *512:A 1.4
2 *222:7 *222:12 0.193074
3 *222:2 *222:12 1.4
4 *222:3 *222:2 1.98857141
5 *222:3 *222:4 0.124286
6 *222:5 *222:4 1.24286
7 *222:11 *222:5 0.124286
8 *222:8 *222:11 1.36714
9 *222:8 *222:10 0.124286
10 *222:9 *222:10 1.4
11 *222:9 *518:Y 1.4
12 *222:6 *222:9 0.193074
*END

*D_NET *223 0.000789578

*CONN
*I *517:Y O *C 26.825 69.165 *L 0 *D AOI22X1
*I *506:A1 I *C 25.085 63.365 *L 0.00278 *D OAI211X1

*CAP
1 *517:Y 3.67994e-05
2 *506:A1 3.67994e-05
3 *223:2 8.00379e-05
4 *223:3 0.00012575
5 *223:4 0.00019366
6 *223:5 0.00016244
7 *223:6 8.42902e-05
8 *223:7 6.97986e-05

*RES
1 *223:7 *517:Y 1.39999998
2 *223:6 *223:7 0.372858
3 *223:5 *223:6 0.248572
4 *223:4 *223:5 1.36714
5 *223:3 *223:4 0.497144
6 *223:2 *223:3 0.497144
7 *506:A1 *223:2 1.39999998
*END

*D_NET *224 0.00034631

*CONN
*I *516:Y O *C 41.615 60.175 *L 0 *D AOI221X1
*I *513:C0 I *C 41.035 58.435 *L 0.00282 *D OAI221X1

*CAP
1 *516:Y 3.67993e-05
2 *513:C0 3.67993e-05
3 *224:2 8.932e-05
4 *224:3 8.81506e-05
5 *224:4 2.80697e-05
6 *224:5 2.80697e-05
7 *224:6 3.90999e-05

*RES
1 *224:6 *516:Y 1.39999998
2 *224:5 *224:6 0.124286
3 *224:4 *224:5 0.124286
4 *224:3 *224:4 0.124286
5 *224:2 *224:3 0.745715
6 *513:C0 *224:2 1.39999998
*END

*D_NET *225 0.0021588

*CONN
*I *515:Y O *C 43.645 23.635 *L 0 *D AOI211X1
*I *512:D I *C 32.625 27.115 *L 0.00166 *D NAND4XL

*CAP
1 *515:Y 2.56651e-05
2 *512:D 3.67966e-05
3 *225:2 0.000127439
4 *225:3 0.000127439
5 *225:4 4.35354e-05
6 *225:5 4.35354e-05
7 *225:6 0.00085422
8 *225:7 4.59599e-05
9 *225:8 0.00085422

*RES
1 *515:Y *225:7 0.386697
2 *225:5 *225:7 1.4
3 *225:5 *225:4 0.248556
4 *225:8 *225:4 1.4
5 *225:2 *512:D 1.4
6 *225:6 *225:8 5.34428549
7 *225:3 *225:2 0.870028
8 *225:3 *225:6 1.4
*END

*D_NET *226 0.000354949

*CONN
*I *514:Y O *C 29.725 27.405 *L 0 *D AOI211X1
*I *512:C I *C 32.335 27.115 *L 0.00164 *D NAND4XL

*CAP
1 *514:Y 3.8479e-05
2 *512:C 3.68005e-05
3 *226:2 5.87803e-05
4 *226:3 7.12005e-05
5 *226:4 9.03098047e-05
6 *226:5 5.93797e-05

*RES
1 *226:5 *512:C 1.39999998
2 *226:4 *226:5 0.248572
3 *226:3 *226:4 0.372858
4 *226:2 *226:3 1.39999998
5 *514:Y *226:2 0.580008
*END

*D_NET *227 0.00026762

*CONN
*I *513:Y O *C 41.035 57.565 *L 0 *D OAI221X1
*I *511:D I *C 43.065 58.145 *L 0.00283 *D NOR4X1

*CAP
1 *513:Y 3.68002e-05
2 *511:D 3.68002e-05
3 *227:2 6.456e-05
4 *227:3 6.456e-05
5 *227:6 3.24499e-05
6 *227:7 3.24499e-05

*RES
1 *227:7 *511:D 1.39999998
2 *227:5 *227:7 0.193051
3 *227:2 *227:7 1.39999998
4 *227:3 *227:2 0.745715
5 *227:6 *227:3 1.39999998
6 *227:6 *513:Y 1.39999998
7 *227:4 *227:6 0.193051
*END

*D_NET *228 0.00281068

*CONN
*I *512:Y O *C 32.915 27.405 *L 0 *D NAND4XL
*I *509:C0 I *C 32.915 47.995 *L 0.00281 *D AOI211X1

*CAP
1 *512:Y 3.68014e-05
2 *509:C0 3.68014e-05
3 *228:2 0.000255872
4 *228:3 0.000256781
5 *228:4 0.000182483
6 *228:5 0.000166562
7 *228:6 0.000121002
8 *228:7 0.000121911
9 *228:8 0.000501629
10 *228:9 0.000517549492
11 *228:7 *126:71 7.537e-05
12 *228:6 *126:72 7.537e-05
13 *228:5 *126:73 3.649e-05
14 *228:4 *126:74 3.64899982e-05
15 *228:2 *174:4 2.177e-05
16 *228:3 *174:5 2.177e-05
17 *228:2 *174:6 0.00017302
18 *228:3 *174:7 0.000173019998

*RES
1 *228:3 *512:Y 1.40002
2 *228:7 *509:C0 1.40002
3 *228:3 *228:2 2.85857153
4 *228:6 *228:7 1.49144
5 *228:2 *228:8 0.124269
6 *228:5 *228:6 0.124269
7 *228:8 *228:9 2.60999
8 *228:4 *228:5 1.73998
9 *228:4 *228:9 0.248581
*END

*D_NET *229 0.00174787

*CONN
*I *511:Y O *C 43.065 58.725 *L 0 *D NOR4X1
*I *510:B0 I *C 33.205 50.025 *L 0.0028 *D OAI21X1

*CAP
1 *511:Y 3.67988e-05
2 *510:B0 3.67988e-05
3 *229:2 8.34527e-05
4 *229:3 9.79425e-05
5 *229:4 0.00026885
6 *229:5 0.000285289
7 *229:6 8.84702e-05
8 *229:7 5.75416e-05
9 *229:8 0.00038014
10 *229:9 0.00038014
11 *229:11 3.24542e-05

*RES
1 *229:7 *510:B0 1.39998
2 *229:7 *229:6 0.248568
3 *229:6 *229:5 0.37288
4 *229:5 *229:4 2.36142
5 *229:4 *229:3 0.248568
6 *229:3 *229:2 0.37288
7 *229:9 *229:2 1.39998
8 *229:9 *229:8 3.72857141
9 *229:11 *229:8 1.39998
10 *229:11 *511:Y 1.39998
11 *229:10 *229:11 0.19304
*END

*D_NET *230 0.000808857

*CONN
*I *510:Y O *C 32.915 49.735 *L 0 *D OAI21X1
*I *508:C0 I *C 25.085 50.025 *L 0.00281 *D AOI211X1

*CAP
1 *510:Y 2.56604e-05
2 *508:C0 3.67992e-05
3 *230:2 5.79318e-05
4 *230:3 5.7248e-05
5 *230:4 0.00025984
6 *230:5 0.00026052
7 *230:8 3.24502e-05
8 *230:9 4.59582e-05
9 *230:10 3.24502e-05

*RES
1 *230:9 *510:Y 0.386665
2 *230:7 *230:10 0.193074
3 *230:10 *230:9 1.39998
4 *230:2 *230:10 1.39998
5 *230:3 *230:2 0.497141
6 *230:3 *230:4 0.124295
7 *230:5 *230:4 2.6099999
8 *230:8 *508:C0 1.39998
9 *230:8 *230:5 1.39998
10 *230:6 *230:8 0.193074
*END

*D_NET *231 0.00131588

*CONN
*I *509:Y O *C 32.335 48.285 *L 0 *D AOI211X1
*I *507:B0 I *C 25.085 52.925 *L 0.0017 *D OAI211XL

*CAP
1 *509:Y 3.67985e-05
2 *507:B0 3.67985e-05
3 *231:2 0.000174843
4 *231:3 0.000174843
5 *231:4 7.86792e-05
6 *231:5 7.86792e-05
7 *231:6 0.00036762
8 *231:7 0.00036762

*RES
1 *231:3 *509:Y 1.40002
2 *231:3 *231:2 1.6157
3 *231:7 *231:2 1.40002
4 *231:4 *507:B0 1.40002
5 *231:6 *231:7 3.35571432
6 *231:5 *231:4 0.372869
7 *231:5 *231:6 1.40002
*END

*D_NET *232 0.0006567

*CONN
*I *508:Y O *C 24.505 49.735 *L 0 *D AOI211X1
*I *507:C0 I *C 25.375 52.925 *L 0.0017 *D OAI211XL

*CAP
1 *508:Y 3.68006e-05
2 *507:C0 3.68006e-05
3 *232:2 5.01693e-05
4 *232:3 5.01693e-05
5 *232:4 8.00705e-05
6 *232:5 8.00705e-05
7 *232:8 3.38003e-05
8 *232:9 0.00012751
9 *232:10 3.38003e-05
10 *232:11 0.00012751

*RES
1 *232:5 *507:C0 1.39999998
2 *232:5 *232:4 0.372858
3 *232:10 *232:4 1.39999998
4 *232:7 *232:10 0.193051
5 *232:11 *232:10 1.39999998
6 *232:3 *508:Y 1.39999998
7 *232:9 *232:11 1.11857
8 *232:3 *232:2 0.372858
9 *232:8 *232:9 1.39999998
10 *232:8 *232:2 1.39999998
11 *232:6 *232:8 0.0299927
*END

*D_NET *233 0.00179042

*CONN
*I *507:Y O *C 25.085 52.345 *L 0 *D OAI211XL
*I *506:C0 I *C 25.665 63.945 *L 0.00286 *D OAI211X1
*I *505:B0 I *C 22.765 63.655 *L 0.0028 *D OAI21X1

*CAP
1 *507:Y 3.6803e-05
2 *506:C0 3.6803e-05
3 *505:B0 3.6803e-05
4 *233:3 0.000356011
5 *233:4 0.00035721
6 *233:5 0.000177943
7 *233:6 0.000177943
8 *233:7 0.000144018
9 *233:8 0.000142819
10 *233:10 4.44775e-05
11 *233:11 4.44775e-05
12 *233:12 0.00011756
13 *233:13 0.00011756

*RES
1 *233:4 *507:Y 1.39999
2 *233:10 *505:B0 1.39999
3 *233:4 *233:3 2.2371428
4 *233:10 *233:11 0.248579
5 *233:3 *233:6 0.12429
6 *233:12 *233:11 1.39999
7 *233:6 *233:5 1.86427
8 *233:12 *233:13 1.24286
9 *233:8 *233:5 0.12429
10 *233:7 *506:C0 1.39999
11 *233:7 *233:13 1.39999
12 *233:8 *233:7 0.869992
13 *233:9 *233:7 0.193074
*END

*D_NET *234 0.00100971

*CONN
*I *506:Y O *C 25.955 62.785 *L 0 *D OAI211X1
*I *502:S0 I *C 27.985 63.365 *L 0.0025 *D MXI2XL
*I *501:S0 I *C 29.435 65.975 *L 0.0025 *D MXI2XL

*CAP
1 *506:Y 3.6799e-05
2 *502:S0 3.6799e-05
3 *501:S0 3.6799e-05
4 *234:3 0.00019155043
5 *234:4 0.00019155043
6 *234:5 5.53592e-05
7 *234:6 0.00011944
8 *234:7 9.78899e-05
9 *234:8 6.00709e-05
10 *234:9 6.00709e-05
11 *234:13 3.24497e-05
12 *234:14 2.92404e-05
13 *234:15 2.92404e-05
14 *234:16 3.24497e-05

*RES
1 *234:16 *501:S0 1.39999
2 *234:12 *234:16 0.157185
3 *234:8 *234:16 1.39999
4 *234:9 *234:8 0.248579
5 *234:3 *234:9 1.39999
6 *234:15 *502:S0 1.39999
7 *234:11 *234:15 0.182856
8 *234:4 *234:3 1.49142861
9 *234:14 *234:15 0.124278
10 *234:5 *234:4 1.39999
11 *234:6 *234:14 1.39999
12 *234:6 *234:5 0.372857
13 *234:7 *234:6 1.11857
14 *234:13 *234:7 1.39999
15 *234:13 *506:Y 1.39999
16 *234:10 *234:13 0.193051
*END

*D_NET *235 0.00129376

*CONN
*I *505:Y O *C 23.055 63.945 *L 0 *D OAI21X1
*I *504:S0 I *C 16.965 68.585 *L 0.0025 *D MXI2XL
*I *503:S0 I *C 21.895 65.975 *L 0.0025 *D MXI2XL

*CAP
1 *505:Y 3.68002e-05
2 *504:S0 3.68002e-05
3 *503:S0 3.68002e-05
4 *235:3 7.09311e-05
5 *235:4 7.09311e-05
6 *235:5 0.00014199
7 *235:6 0.00014111
8 *235:8 5.79313e-05
9 *235:9 8.48907e-05
10 *235:10 5.79313e-05
11 *235:11 8.4011e-05
12 *235:12 3.96515e-05
13 *235:13 4.08496e-05
14 *235:14 4.00501e-05
15 *235:15 3.88498e-05
16 *235:5 *245:20 1.25e-05
17 *235:6 *245:7 1.25e-05
18 *235:5 *245:7 3.677e-05
19 *235:6 *245:8 3.677e-05
20 *235:5 *245:8 8.309e-05
21 *235:6 *245:17 8.309e-05
22 *235:5 *245:17 2.476e-05
23 *235:6 *245:16 2.47599927e-05

*RES
1 *235:10 *504:S0 1.39999
2 *235:8 *235:10 0.745705
3 *235:14 *505:Y 1.39999
4 *235:9 *235:8 1.39999
5 *235:14 *235:15 0.24856
6 *235:9 *235:11 0.99429
7 *235:4 *235:15 0.12428
8 *235:6 *235:11 0.12428
9 *235:4 *235:3 0.497145
10 *235:6 *235:5 1.61571431
11 *235:12 *235:3 0.12428
12 *235:13 *503:S0 1.39999
13 *235:13 *235:5 1.39999
14 *235:12 *235:13 0.24856
15 *235:7 *235:13 0.193064
*END

*D_NET *236 0.000601541

*CONN
*I *504:Y O *C 17.545 69.165 *L 0 *D MXI2XL
*I *500:B I *C 19.285 71.195 *L 0.00171 *D NOR2XL

*CAP
1 *504:Y 3.68005e-05
2 *500:B 3.68005e-05
3 *236:2 0.000120561
4 *236:3 0.00019752
5 *236:4 0.00014341
6 *236:5 6.64518e-05

*RES
1 *236:5 *500:B 1.39999998
2 *236:4 *236:5 0.372858
3 *236:3 *236:4 0.745715
4 *236:2 *236:3 0.621429
5 *504:Y *236:2 1.39999998
*END

*D_NET *237 0.00113518

*CONN
*I *503:Y O *C 21.315 65.395 *L 0 *D MXI2XL
*I *499:B I *C 23.925 71.195 *L 0.00171 *D NOR2XL

*CAP
1 *503:Y 3.68009e-05
2 *499:B 3.68009e-05
3 *237:2 0.00013049
4 *237:3 0.00013049
5 *237:4 0.000130731
6 *237:5 0.000129531
7 *237:6 0.00014332
8 *237:7 0.000144519844
9 *237:8 0.00012625
10 *237:9 0.00012625

*RES
1 *237:2 *499:B 1.39999998
2 *237:3 *237:2 1.11857
3 *237:9 *237:3 1.39999998
4 *237:8 *237:9 0.994287
5 *237:4 *237:8 1.39999998
6 *237:5 *237:4 0.497144
7 *237:6 *237:5 0.124286
8 *237:7 *237:6 0.745715
9 *503:Y *237:7 1.39999998
*END

*D_NET *238 0.000388512

*CONN
*I *502:Y O *C 27.405 63.945 *L 0 *D MXI2XL
*I *497:B I *C 30.305 63.365 *L 0.00171 *D NOR2XL

*CAP
1 *502:Y 3.67993e-05
2 *497:B 3.67993e-05
3 *238:2 3.06613e-05
4 *238:3 3.06613e-05
5 *238:6 3.24497e-05
6 *238:7 0.00011057
7 *238:8 0.00011057

*RES
1 *238:3 *497:B 1.39999998
2 *238:5 *238:3 0.0643219
3 *238:3 *238:2 0.124286
4 *238:8 *238:2 1.39999998
5 *238:7 *238:8 1.24286
6 *238:6 *238:7 1.39999998
7 *238:6 *502:Y 1.39999998
8 *238:4 *238:6 0.193051
*END

*D_NET *239 0.000619321

*CONN
*I *501:Y O *C 28.855 65.395 *L 0 *D MXI2XL
*I *498:B I *C 29.725 68.585 *L 0.00171 *D NOR2XL

*CAP
1 *501:Y 3.67993e-05
2 *498:B 3.67993e-05
3 *239:2 8.56507e-05
4 *239:3 0.0001158
5 *239:4 0.00018721
6 *239:5 0.000157061

*RES
1 *239:5 *498:B 1.39999998
2 *239:4 *239:5 0.745715
3 *239:3 *239:4 0.372858
4 *239:2 *239:3 0.497144
5 *501:Y *239:2 1.39999998
*END

*D_NET *240 0.00045203

*CONN
*I *485:A I *C 16.095 71.195 *L 0.00172 *D CLKBUFX2
*I *500:Y O *C 18.995 71.485 *L 0 *D NOR2XL

*CAP
1 *485:A 3.68001e-05
2 *500:Y 3.68001e-05
3 *240:2 2.92391e-05
4 *240:3 2.92391e-05
5 *240:4 0.00014375
6 *240:5 0.00014375
7 *240:8 3.24504e-05

*RES
1 *240:7 *240:8 0.193051
2 *240:8 *500:Y 1.39999998
3 *240:4 *240:8 1.39999998
4 *240:5 *240:4 1.24286
5 *240:2 *240:5 1.39999998
6 *240:3 *485:A 1.39999998
7 *240:3 *240:2 0.124286
8 *240:6 *240:3 0.0643219
*END

*D_NET *241 0.00053784

*CONN
*I *499:Y O *C 24.215 71.485 *L 0 *D NOR2XL
*I *493:D I *C 26.245 73.515 *L 0.0016 *D DFFQX1

*CAP
1 *499:Y 3.68002e-05
2 *493:D 3.68002e-05
3 *241:2 0.00011705
4 *241:3 0.00011705
5 *241:4 6.11496e-05
6 *241:5 6.11496e-05
7 *241:6 5.39196e-05
8 *241:7 5.39196e-05

*RES
1 *241:7 *493:D 1.39999998
2 *241:6 *241:7 0.372858
3 *241:2 *241:6 1.39999998
4 *241:3 *241:2 0.870001
5 *241:4 *241:3 1.39999998
6 *241:5 *241:4 0.497144
7 *499:Y *241:5 1.39999998
*END

*D_NET *242 0.00036958

*CONN
*I *498:Y O *C 29.435 68.295 *L 0 *D NOR2XL
*I *496:D I *C 29.725 71.485 *L 0.0016 *D DFFQX1

*CAP
1 *498:Y 3.67998e-05
2 *496:D 3.67998e-05
3 *242:2 6.53893e-05
4 *242:3 6.65602e-05
5 *242:4 8.14304e-05
6 *242:5 8.26e-05

*RES
1 *242:5 *496:D 1.39999998
2 *242:4 *242:5 0.745715
3 *242:2 *242:4 0.124286
4 *242:3 *242:2 0.621429
5 *498:Y *242:3 1.39999998
*END

*D_NET *243 0.00039186

*CONN
*I *497:Y O *C 30.595 63.075 *L 0 *D NOR2XL
*I *495:D I *C 31.755 61.045 *L 0.0016 *D DFFQX1

*CAP
1 *497:Y 3.89602e-05
2 *495:D 3.67998e-05
3 *243:2 4.48896e-05
4 *243:3 5.92605e-05
5 *243:4 4.60596e-05
6 *243:5 8.3529873e-05
7 *243:6 8.23598e-05

*RES
1 *243:5 *495:D 1.39999998
2 *243:5 *243:6 0.621429
3 *243:2 *243:6 0.124286
4 *243:2 *243:4 0.248572
5 *243:3 *243:4 1.39999998
6 *497:Y *243:3 0.580008
*END

*D_NET *244 0.000619731

*CONN
*I *491:Y O *C 18.125 66.265 *L 0 *D NOR2XL
*I *490:D I *C 20.155 63.075 *L 0.0016 *D DFFQX1

*CAP
1 *491:Y 3.67995e-05
2 *490:D 3.67995e-05
3 *244:3 0.00015707
4 *244:4 9.97689e-05
5 *244:5 0.00015707
6 *244:6 3.24494e-05
7 *244:7 9.97689e-05

*RES
1 *244:5 *491:Y 1.39999998
2 *244:3 *244:5 1.36714
3 *244:4 *244:3 1.39999998
4 *244:4 *244:7 0.870001
5 *244:6 *490:D 1.39999998
6 *244:6 *244:7 1.39999998
7 *244:2 *244:6 0.193051
*END

*D_NET *245 0.00195428

*CONN
*I *533:B I *C 23.635 65.975 *L 0.00171 *D NOR2XL
*I *522:A I *C 31.465 65.975 *L 0.00157 *D NAND2XL
*I *505:A1 I *C 22.185 63.365 *L 0.00274 *D OAI21X1
*I *492:Y O *C 25.665 65.105 *L 0 *D NAND2BX1
*I *491:B I *C 18.415 65.975 *L 0.00171 *D NOR2XL

*CAP
1 *533:B 3.68029e-05
2 *522:A 3.68029e-05
3 *505:A1 3.68029e-05
4 *492:Y 3.68029e-05
5 *491:B 3.68029e-05
6 *245:5 0.000117887
7 *245:6 0.000117887
8 *245:7 7.68975e-05
9 *245:8 9.07127e-05
10 *245:9 0.000262778
11 *245:10 0.00035133
12 *245:15 3.24498e-05
13 *245:16 4.15206e-05
14 *245:17 8.72602e-05
15 *245:18 4.10595e-05
16 *245:19 3.24498e-05
17 *245:20 0.000138886
18 *245:21 3.24498e-05
19 *245:22 3.24498e-05
20 *245:20 *235:5 1.25e-05
21 *245:7 *235:6 1.25e-05
22 *245:7 *235:5 3.677e-05
23 *245:8 *235:6 3.677e-05
24 *245:8 *235:5 8.309e-05
25 *245:17 *235:6 8.309e-05
26 *245:17 *235:5 2.476e-05
27 *245:16 *235:6 2.47599927e-05

*RES
1 *245:22 *522:A 1.40001
2 *245:14 *245:22 0.193062
3 *245:6 *505:A1 1.40001
4 *245:9 *245:22 1.40001
5 *245:13 *245:21 0.193062
6 *245:21 *492:Y 1.40001
7 *245:6 *245:5 0.994282
8 *245:19 *533:B 1.40001
9 *245:12 *245:19 0.193062
10 *245:10 *245:9 2.3614285
11 *245:10 *245:21 1.40001
12 *245:18 *245:5 1.40001
13 *245:20 *245:19 1.40001
14 *245:20 *245:10 0.994282
15 *245:18 *245:7 0.124276
16 *245:7 *245:20 0.621417
17 *245:8 *245:7 0.372865
18 *245:17 *245:8 0.870006
19 *245:16 *245:17 0.372865
20 *245:15 *491:B 1.40001
21 *245:15 *245:16 1.40001
22 *245:11 *245:15 0.193062
*END

*D_NET *246 0.00056036

*CONN
*I *629:Y O *C 35.6075 74.095 *L 0 *D CLKINVX1
*I *585:D I *C 36.105 71.195 *L 0.00183 *D SDFFQX1

*CAP
1 *629:Y 3.68004e-05
2 *585:D 3.68004e-05
3 *246:2 0.000137859668
4 *246:3 0.00012337
5 *246:4 0.000105521
6 *246:5 0.000120011

*RES
1 *246:4 *585:D 1.39999998
2 *246:4 *246:5 0.497144
3 *246:3 *629:Y 1.39999998
4 *246:2 *246:5 0.248572
5 *246:2 *246:3 0.745715
*END

*D_NET *247 0.00057194

*CONN
*I *628:Y O *C 36.395 73.515 *L 0 *D NOR2XL
*I *585:SE I *C 37.845 70.905 *L 0.00237 *D SDFFQX1

*CAP
1 *628:Y 3.67989e-05
2 *585:SE 3.67989e-05
3 *247:2 4.34911e-05
4 *247:3 4.34911e-05
5 *247:4 0.00012261
6 *247:5 0.00012261
7 *247:6 8.30702e-05
8 *247:7 8.30702e-05

*RES
1 *247:5 *585:SE 1.39999998
2 *247:5 *247:4 0.870001
3 *247:7 *247:4 1.39999998
4 *247:6 *247:7 0.621429
5 *247:2 *628:Y 1.39999998
6 *247:3 *247:6 1.39999998
7 *247:3 *247:2 0.248572
*END

*D_NET *248 0.00038907

*CONN
*I *627:Y O *C 46.255 70.615 *L 0 *D MXI2XL
*I *603:B I *C 48.575 71.195 *L 0.00171 *D NOR2XL

*CAP
1 *627:Y 3.67998e-05
2 *603:B 3.67998e-05
3 *248:2 0.00011227
4 *248:3 0.00011227
5 *248:4 2.92397e-05
6 *248:5 2.92397e-05
7 *248:8 3.24501e-05

*RES
1 *248:4 *603:B 1.39999998
2 *248:7 *248:4 0.18284
3 *248:5 *248:4 0.124286
4 *248:2 *248:5 1.39999998
5 *248:3 *248:2 0.994287
6 *248:8 *248:3 1.39999998
7 *248:8 *627:Y 1.39999998
8 *248:6 *248:8 0.0299927
*END

*D_NET *249 0.000496712

*CONN
*I *626:Y O *C 45.385 63.945 *L 0 *D MXI2XL
*I *609:B I *C 48.575 63.365 *L 0.00171 *D NOR2XL

*CAP
1 *626:Y 3.68015e-05
2 *609:B 3.68015e-05
3 *249:4 3.24488e-05
4 *249:5 0.00016633
5 *249:6 2.89996e-05
6 *249:7 2.89996e-05
7 *249:8 0.00016633

*RES
1 *249:6 *609:B 1.39999998
2 *249:6 *249:7 0.124286
3 *249:3 *249:7 0.18284
4 *249:8 *249:7 1.39999998
5 *249:5 *249:8 1.36714
6 *249:4 *249:5 1.39999998
7 *249:4 *626:Y 1.39999998
8 *249:2 *249:4 0.193051
*END

*D_NET *250 0.00060608

*CONN
*I *625:Y O *C 47.705 49.735 *L 0 *D MXI2XL
*I *607:B I *C 50.025 50.315 *L 0.00171 *D NOR2XL

*CAP
1 *625:Y 3.68001e-05
2 *607:B 3.68001e-05
3 *250:2 4.00497e-05
4 *250:3 0.00014667
5 *250:4 4.00497e-05
6 *250:5 7.95198e-05
7 *250:6 0.00014667
8 *250:7 7.95198e-05

*RES
1 *250:7 *607:B 1.39999998
2 *250:5 *250:7 0.372858
3 *250:6 *250:5 1.39999998
4 *250:3 *250:6 0.994287
5 *250:4 *625:Y 1.39999998
6 *250:2 *250:3 1.39999998
7 *250:2 *250:4 0.248572
*END

*D_NET *251 0.000955881

*CONN
*I *624:Y O *C 46.545 58.725 *L 0 *D MXI2XL
*I *605:B I *C 50.605 55.535 *L 0.00171 *D NOR2XL

*CAP
1 *624:Y 3.68015e-05
2 *605:B 3.68015e-05
3 *251:2 0.000149379
4 *251:3 0.000149379
5 *251:4 9.56001e-05
6 *251:5 9.56001e-05
7 *251:6 0.00019616
8 *251:7 0.00019616

*RES
1 *251:3 *605:B 1.4
2 *251:3 *251:2 0.745718
3 *251:7 *251:2 1.4
4 *251:6 *251:7 1.74000001
5 *251:4 *624:Y 1.4
6 *251:5 *251:6 1.4
7 *251:5 *251:4 0.497154
*END

*D_NET *252 0.000448071

*CONN
*I *623:Y O *C 34.945 27.405 *L 0 *D MXI2XL
*I *608:B I *C 37.265 26.825 *L 0.00171 *D NOR2XL

*CAP
1 *623:Y 3.68e-05
2 *608:B 3.68e-05
3 *252:2 3.159e-05
4 *252:3 3.159e-05
5 *252:4 0.00013942
6 *252:5 0.00013942
7 *252:8 3.24494e-05

*RES
1 *252:8 *608:B 1.39999998
2 *252:7 *252:8 0.193051
3 *252:4 *252:8 1.39999998
4 *252:5 *252:4 0.994287
5 *252:3 *252:5 1.39999998
6 *252:3 *252:2 0.124286
7 *252:2 *623:Y 1.39999998
8 *252:6 *252:2 0.18284
*END

*D_NET *253 0.000690299

*CONN
*I *622:Y O *C 39.585 22.185 *L 0 *D MXI2XL
*I *604:B I *C 41.035 21.605 *L 0.00171 *D NOR2XL

*CAP
1 *622:Y 3.68009e-05
2 *604:B 3.68009e-05
3 *253:2 0.000116501
4 *253:3 0.000177819
5 *253:4 0.000130529
6 *253:5 0.00019185

*RES
1 *253:4 *604:B 1.39999998
2 *253:4 *253:5 0.870001
3 *253:3 *253:5 0.621429
4 *253:2 *253:3 0.745715
5 *622:Y *253:2 1.39999998
*END

*D_NET *254 0.000381

*CONN
*I *621:Y O *C 47.125 22.185 *L 0 *D MXI2XL
*I *610:B I *C 48.285 21.605 *L 0.00171 *D NOR2XL

*CAP
1 *621:Y 3.68009e-05
2 *610:B 3.68009e-05
3 *254:2 4.22205e-05
4 *254:3 8.79095e-05
5 *254:4 6.57905e-05
6 *254:5 0.000111479473

*RES
1 *254:4 *610:B 1.39999998
2 *254:4 *254:5 0.372858
3 *254:3 *254:5 0.497144
4 *254:2 *254:3 0.248572
5 *621:Y *254:2 1.39999998
*END

*D_NET *255 0.000363039

*CONN
*I *620:Y O *C 23.345 58.725 *L 0 *D MXI2XL
*I *601:B I *C 21.895 58.145 *L 0.00171 *D NOR2XL

*CAP
1 *620:Y 3.67997e-05
2 *601:B 3.67997e-05
3 *255:2 4.25389e-05
4 *255:3 0.000103870703
5 *255:4 4.08509e-05
6 *255:5 0.00010218

*RES
1 *255:4 *620:Y 1.39999998
2 *255:4 *255:5 0.248572
3 *255:3 *255:5 0.621429
4 *255:2 *255:3 0.372858
5 *601:B *255:2 1.39999998
*END

*D_NET *256 0.000373139

*CONN
*I *619:Y O *C 43.645 22.185 *L 0 *D MXI2XL
*I *602:B I *C 44.515 21.605 *L 0.00171 *D NOR2XL

*CAP
1 *619:Y 3.67993e-05
2 *602:B 3.67993e-05
3 *256:2 8.48496e-05
4 *256:3 5.47895e-05
5 *256:4 9.49802148e-05
6 *256:5 6.49202e-05

*RES
1 *256:5 *602:B 1.39999998
2 *256:4 *256:5 0.372858
3 *256:3 *619:Y 1.39999998
4 *256:2 *256:4 0.372858
5 *256:2 *256:3 0.497144
*END

*D_NET *257 0.00040417

*CONN
*I *618:Y O *C 46.545 65.395 *L 0 *D MXI2XL
*I *598:B I *C 47.995 65.975 *L 0.00171 *D NOR2XL

*CAP
1 *618:Y 3.67999e-05
2 *598:B 3.67999e-05
3 *257:2 0.00011042
4 *257:3 0.00011042
5 *257:6 3.24495e-05
6 *257:7 3.86398e-05
7 *257:8 3.86398e-05

*RES
1 *257:8 *598:B 1.39999998
2 *257:5 *257:8 0.18284
3 *257:7 *257:8 0.124286
4 *257:2 *257:7 1.39999998
5 *257:3 *257:2 0.621429
6 *257:6 *257:3 1.39999998
7 *257:6 *618:Y 1.39999998
8 *257:4 *257:6 0.193051
*END

*D_NET *258 0.000451019

*CONN
*I *617:Y O *C 25.375 54.955 *L 0 *D MXI2XL
*I *600:B I *C 23.635 55.535 *L 0.00171 *D NOR2XL

*CAP
1 *617:Y 3.68005e-05
2 *600:B 3.68005e-05
3 *258:2 0.000129329
4 *258:3 5.23703e-05
5 *258:4 0.00013634
6 *258:5 5.93792e-05

*RES
1 *258:5 *617:Y 1.39999998
2 *258:3 *600:B 1.39999998
3 *258:4 *258:5 0.248572
4 *258:2 *258:3 0.372858
5 *258:2 *258:4 0.745715
*END

*D_NET *259 0.000388629

*CONN
*I *616:Y O *C 19.575 18.415 *L 0 *D MXI2XL
*I *599:B I *C 21.605 18.995 *L 0.00171 *D NOR2XL

*CAP
1 *616:Y 3.67995e-05
2 *599:B 3.67995e-05
3 *259:2 3.81001e-05
4 *259:3 3.81001e-05
5 *259:6 0.00010319
6 *259:7 3.24505e-05
7 *259:8 0.00010319

*RES
1 *259:7 *599:B 1.39999998
2 *259:5 *259:7 0.193051
3 *259:8 *259:7 1.39999998
4 *259:6 *259:8 0.870001
5 *259:2 *259:6 1.39999998
6 *259:3 *259:2 0.124286
7 *259:3 *616:Y 1.39999998
8 *259:4 *259:3 0.0643219
*END

*D_NET *260 0.000341419

*CONN
*I *615:Y O *C 28.275 53.505 *L 0 *D MXI2XL
*I *595:B I *C 28.855 55.535 *L 0.00171 *D NOR2XL

*CAP
1 *615:Y 3.67997e-05
2 *595:B 3.67997e-05
3 *260:2 6.93995e-05
4 *260:3 8.389e-05
5 *260:4 6.45096e-05
6 *260:5 5.00204e-05

*RES
1 *260:5 *595:B 1.39999998
2 *260:4 *260:5 0.497144
3 *260:3 *260:4 0.248572
4 *260:2 *260:3 0.497144
5 *615:Y *260:2 1.39999998
*END

*D_NET *261 0.0003837

*CONN
*I *614:Y O *C 30.015 18.415 *L 0 *D MXI2XL
*I *597:B I *C 28.855 18.995 *L 0.00171 *D NOR2XL

*CAP
1 *614:Y 3.68011e-05
2 *597:B 3.68011e-05
3 *261:2 9.56695e-05
4 *261:3 4.99799e-05
5 *261:4 0.000105069395
6 *261:5 5.93798e-05

*RES
1 *261:5 *614:Y 1.39999998
2 *261:3 *597:B 1.39999998
3 *261:4 *261:5 0.248572
4 *261:2 *261:3 0.372858
5 *261:2 *261:4 0.497144
*END

*D_NET *262 0.000503251

*CONN
*I *613:Y O *C 35.235 23.635 *L 0 *D MXI2XL
*I *606:B I *C 37.265 24.215 *L 0.00171 *D NOR2XL

*CAP
1 *613:Y 3.68009e-05
2 *606:B 3.68009e-05
3 *262:2 3.13496e-05
4 *262:3 3.13496e-05
5 *262:4 0.00016725
6 *262:5 0.00016725
7 *262:8 3.24496e-05

*RES
1 *262:8 *606:B 1.39999998
2 *262:7 *262:8 0.193051
3 *262:4 *262:8 1.39999998
4 *262:5 *262:4 0.870001
5 *262:2 *262:5 1.39999998
6 *262:3 *262:2 0.124286
7 *262:3 *613:Y 1.39999998
8 *262:6 *262:3 0.0643219
*END

*D_NET *263 0.000485441

*CONN
*I *612:Y O *C 29.435 44.515 *L 0 *D MXI2XL
*I *596:B I *C 29.145 47.705 *L 0.00171 *D NOR2XL

*CAP
1 *612:Y 3.68e-05
2 *596:B 3.68e-05
3 *263:2 0.00011953
4 *263:3 0.00012044
5 *263:4 8.63911e-05
6 *263:5 8.54796e-05

*RES
1 *263:4 *612:Y 1.39999998
2 *263:3 *596:B 1.39999998
3 *263:4 *263:5 0.497144
4 *263:2 *263:3 0.745715
5 *263:2 *263:5 0.124286
*END

*D_NET *264 0.00044068

*CONN
*I *611:Y O *C 29.435 22.185 *L 0 *D MXI2XL
*I *594:B I *C 27.985 21.605 *L 0.00171 *D NOR2XL

*CAP
1 *611:Y 3.67998e-05
2 *594:B 3.67998e-05
3 *264:2 4.95697e-05
4 *264:3 4.95697e-05
5 *264:4 8.764e-05
6 *264:5 4.63294e-05
7 *264:6 4.63294e-05
8 *264:7 8.764e-05

*RES
1 *264:5 *611:Y 1.39999998
2 *264:5 *264:6 0.248572
3 *264:7 *264:6 1.39999998
4 *264:4 *264:7 0.621429
5 *264:3 *264:4 1.39999998
6 *264:2 *264:3 0.372858
7 *594:B *264:2 1.39999998
*END

*D_NET *265 0.00069085

*CONN
*I *610:Y O *C 47.995 21.315 *L 0 *D NOR2XL
*I *587:D I *C 45.095 19.285 *L 0.0016 *D DFFQX1

*CAP
1 *610:Y 3.67999e-05
2 *587:D 3.67999e-05
3 *265:2 0.00011537
4 *265:3 0.00011537
5 *265:4 0.00017703
6 *265:5 0.00017703
7 *265:7 3.24508e-05

*RES
1 *265:2 *610:Y 1.39999998
2 *265:3 *265:2 0.870001
3 *265:4 *265:3 1.39999998
4 *265:5 *265:4 1.24286
5 *265:7 *587:D 1.39999998
6 *265:7 *265:5 1.39999998
7 *265:6 *265:7 0.193051
*END

*D_NET *266 0.000376638

*CONN
*I *609:Y O *C 48.865 63.075 *L 0 *D NOR2XL
*I *577:D I *C 49.735 61.045 *L 0.0016 *D DFFQX1

*CAP
1 *609:Y 3.67986e-05
2 *577:D 3.67986e-05
3 *266:2 7.23697e-05
4 *266:3 4.2219e-05
5 *266:4 7.91493e-05
6 *266:5 0.0001093

*RES
1 *266:4 *577:D 1.39999998
2 *266:4 *266:5 0.621429
3 *266:3 *609:Y 1.39999998
4 *266:2 *266:5 0.372858
5 *266:2 *266:3 0.248572
*END

*D_NET *267 0.000409219

*CONN
*I *608:Y O *C 37.555 26.535 *L 0 *D NOR2XL
*I *592:D I *C 38.715 29.435 *L 0.00216 *D DFFHQX1

*CAP
1 *608:Y 2.56604e-05
2 *592:D 3.68006e-05
3 *267:2 4.59593e-05
4 *267:3 7.39895e-05
5 *267:4 8.90001074e-05
6 *267:5 7.64096e-05
7 *267:6 6.1399e-05

*RES
1 *267:6 *592:D 1.39999998
2 *267:5 *267:6 0.745715
3 *267:4 *267:5 0.248572
4 *267:3 *267:4 0.497144
5 *267:2 *267:3 1.39999998
6 *608:Y *267:2 0.386658
*END

*D_NET *268 0.000685885

*CONN
*I *607:Y O *C 50.315 50.605 *L 0 *D NOR2XL
*I *591:D I *C 46.255 50.605 *L 0.00164 *D DFFQXL

*CAP
1 *607:Y 3.68021e-05
2 *591:D 3.68021e-05
3 *268:2 3.68317e-05
4 *268:3 3.68317e-05
5 *268:4 0.00021538
6 *268:5 0.00021538
7 *268:6 5.39313e-05
8 *268:7 5.39313e-05

*RES
1 *268:6 *607:Y 1.4
2 *268:7 *268:6 0.248564
3 *268:4 *268:7 1.4
4 *268:2 *591:D 1.4
5 *268:5 *268:4 1.74000001
6 *268:3 *268:2 0.248564
7 *268:3 *268:5 1.4
*END

*D_NET *269 0.0008196

*CONN
*I *606:Y O *C 37.555 24.505 *L 0 *D NOR2XL
*I *590:D I *C 36.395 21.315 *L 0.0016 *D DFFQX1

*CAP
1 *606:Y 2.56617e-05
2 *590:D 3.68007e-05
3 *269:2 7.55985e-05
4 *269:3 7.55985e-05
5 *269:4 0.000106969
6 *269:5 0.00016953
7 *269:6 0.000106969
8 *269:7 5.29401e-05
9 *269:8 0.00016953

*RES
1 *606:Y *269:7 0.386658
2 *269:8 *269:7 1.39999998
3 *269:5 *269:8 0.870001
4 *269:6 *269:5 1.39999998
5 *269:4 *269:6 0.745715
6 *269:2 *269:4 1.39999998
7 *269:3 *269:2 0.497144
8 *590:D *269:3 1.39999998
*END

*D_NET *270 0.000505801

*CONN
*I *605:Y O *C 50.895 55.825 *L 0 *D NOR2XL
*I *589:D I *C 52.055 57.855 *L 0.0016 *D DFFQX1

*CAP
1 *605:Y 3.6799e-05
2 *589:D 3.6799e-05
3 *270:2 3.91002e-05
4 *270:3 0.000145681
5 *270:4 0.000177
6 *270:5 7.04219e-05

*RES
1 *270:5 *589:D 1.39999998
2 *270:4 *270:5 0.372858
3 *270:3 *270:4 0.870001
4 *270:2 *270:3 0.124286
5 *605:Y *270:2 1.39999998
*END

*D_NET *271 0.00131851

*CONN
*I *604:Y O *C 41.325 21.315 *L 0 *D NOR2XL
*I *588:D I *C 32.915 19.285 *L 0.00164 *D DFFQXL

*CAP
1 *604:Y 3.68013e-05
2 *588:D 3.68013e-05
3 *271:2 0.000118699
4 *271:3 0.000118699
5 *271:4 5.95202e-05
6 *271:5 5.86079e-05
7 *271:6 0.000262472
8 *271:7 0.00026338
9 *271:9 3.24488e-05
10 *271:10 0.000165539
11 *271:11 0.000165539

*RES
1 *271:11 *604:Y 1.39999
2 *271:10 *271:11 0.869992
3 *271:4 *271:10 1.39999
4 *271:5 *271:4 0.372869
5 *271:5 *271:2 0.12429
6 *271:3 *271:2 0.994282
7 *271:6 *271:3 0.12429
8 *271:7 *271:6 2.2371428
9 *271:9 *588:D 1.39999
10 *271:9 *271:7 1.39999
11 *271:8 *271:9 0.193074
*END

*D_NET *272 0.00034907

*CONN
*I *603:Y O *C 48.865 71.485 *L 0 *D NOR2XL
*I *593:D I *C 47.705 73.515 *L 0.00164 *D DFFQXL

*CAP
1 *603:Y 3.6799e-05
2 *593:D 3.6799e-05
3 *272:2 8.60803e-05
4 *272:3 7.1791e-05
5 *272:4 0.0001176

*RES
1 *272:3 *603:Y 1.39999998
2 *272:3 *272:4 0.870001
3 *272:2 *272:4 0.497144
4 *593:D *272:2 1.39999998
*END

*D_NET *273 0.000501719

*CONN
*I *602:Y O *C 44.805 21.315 *L 0 *D NOR2XL
*I *579:D I *C 43.065 19.285 *L 0.0016 *D DFFQX1

*CAP
1 *602:Y 3.67982e-05
2 *579:D 3.67982e-05
3 *273:2 7.74197e-05
4 *273:3 0.00015438
5 *273:4 5.9679e-05
6 *273:5 0.000136639

*RES
1 *273:2 *602:Y 1.39999998
2 *273:3 *273:2 0.372858
3 *273:5 *273:3 0.745715
4 *273:4 *273:5 0.497144
5 *579:D *273:4 1.39999998
*END

*D_NET *274 0.000249081

*CONN
*I *601:Y O *C 21.605 57.855 *L 0 *D NOR2XL
*I *586:D I *C 20.155 57.855 *L 0.00164 *D DFFQXL

*CAP
1 *601:Y 2.56605e-05
2 *586:D 3.68e-05
3 *274:2 7.033e-05
4 *274:3 4.59605e-05
5 *274:4 7.033e-05

*RES
1 *274:3 *601:Y 0.386658
2 *274:4 *274:3 1.39999998
3 *274:2 *274:4 0.372858
4 *586:D *274:2 1.39999998
*END

*D_NET *275 0.0003573

*CONN
*I *600:Y O *C 23.345 55.825 *L 0 *D NOR2XL
*I *576:D I *C 20.735 55.825 *L 0.0016 *D DFFQX1

*CAP
1 *600:Y 6.41404e-05
2 *576:D 3.68001e-05
3 *275:2 8.596e-05
4 *275:3 8.44398e-05
5 *275:4 8.596e-05

*RES
1 *275:3 *600:Y 0.966666
2 *275:4 *275:3 1.39999998
3 *275:2 *275:4 0.497144
4 *576:D *275:2 1.39999998
*END

*D_NET *276 0.00038076

*CONN
*I *599:Y O *C 21.315 19.285 *L 0 *D NOR2XL
*I *583:D I *C 20.155 21.315 *L 0.0016 *D DFFQX1

*CAP
1 *599:Y 3.96799e-05
2 *583:D 3.68e-05
3 *276:2 7.76701e-05
4 *276:3 7.887e-05
5 *276:4 5.99802e-05
6 *276:5 4.44794e-05
7 *276:6 4.32795e-05

*RES
1 *276:4 *599:Y 0.580008
2 *276:5 *276:4 1.39999998
3 *276:3 *583:D 1.39999998
4 *276:5 *276:6 0.248572
5 *276:2 *276:3 0.621429
6 *276:2 *276:6 0.124286
*END

*D_NET *277 0.000386001

*CONN
*I *598:Y O *C 48.285 66.265 *L 0 *D NOR2XL
*I *584:D I *C 49.445 68.295 *L 0.0016 *D DFFQX1

*CAP
1 *598:Y 2.56601e-05
2 *584:D 3.68001e-05
3 *277:2 5.29408e-05
4 *277:3 5.39205e-05
5 *277:4 6.84096e-05
6 *277:5 8.138e-05
7 *277:6 6.68897e-05

*RES
1 *277:6 *584:D 1.39999998
2 *277:5 *277:6 0.497144
3 *277:4 *277:5 0.248572
4 *277:3 *277:4 0.372858
5 *277:2 *277:3 1.39999998
6 *598:Y *277:2 0.386658
*END

*D_NET *278 0.00032958

*CONN
*I *597:Y O *C 29.145 19.285 *L 0 *D NOR2XL
*I *581:D I *C 27.405 19.285 *L 0.0016 *D DFFQX1

*CAP
1 *597:Y 3.6799e-05
2 *581:D 3.6799e-05
3 *278:2 9.554e-05
4 *278:3 9.554e-05
5 *278:6 3.24502e-05
6 *278:7 3.24502e-05

*RES
1 *278:5 *278:7 0.193051
2 *278:7 *597:Y 1.39999998
3 *278:2 *278:7 1.39999998
4 *278:3 *278:2 0.745715
5 *278:6 *581:D 1.39999998
6 *278:6 *278:3 1.39999998
7 *278:4 *278:6 0.193051
*END

*D_NET *279 0.000527139

*CONN
*I *596:Y O *C 29.435 47.415 *L 0 *D NOR2XL
*I *580:D I *C 31.175 50.605 *L 0.00164 *D DFFQXL

*CAP
1 *596:Y 7.81805e-05
2 *580:D 3.67999e-05
3 *279:2 9.45806e-05
4 *279:3 4.36793e-05
5 *279:4 0.000136949658
6 *279:5 0.000136949658

*RES
1 *279:5 *580:D 1.39999998
2 *279:4 *279:5 1.24286
3 *279:3 *279:4 1.39999998
4 *279:2 *279:3 0.193329
5 *596:Y *279:2 1.15999
*END

*D_NET *280 0.00067016

*CONN
*I *595:Y O *C 29.145 55.825 *L 0 *D NOR2XL
*I *578:D I *C 31.175 58.145 *L 0.00216 *D DFFHQX1

*CAP
1 *595:Y 3.67991e-05
2 *578:D 3.67991e-05
3 *280:2 0.000107881
4 *280:3 0.000107881
5 *280:4 0.00014303
6 *280:5 0.00014303
7 *280:6 4.73711e-05
8 *280:7 4.73711e-05

*RES
1 *280:2 *578:D 1.39999998
2 *280:3 *280:2 0.621429
3 *280:4 *280:3 1.39999998
4 *280:5 *280:4 0.870001
5 *280:6 *280:5 1.39999998
6 *280:7 *280:6 0.372858
7 *595:Y *280:7 1.39999998
*END

*D_NET *281 0.0001563

*CONN
*I *594:Y O *C 27.695 21.315 *L 0 *D NOR2XL
*I *582:D I *C 26.245 21.315 *L 0.0016 *D DFFQX1

*CAP
1 *281:2 7.815e-05
2 *281:3 7.815e-05

*RES
1 *281:3 *594:Y 1.39999998
2 *281:2 *281:3 0.621429
3 *582:D *281:2 1.39999998
*END

*D_NET *282 0.00080852

*CONN
*I *749:Y O *C 41.035 32.335 *L 0 *D NAND2BX2
*I *722:A2 I *C 44.225 37.265 *L 0.00281 *D OAI32X1

*CAP
1 *749:Y 3.68005e-05
2 *722:A2 3.68005e-05
3 *282:2 0.000107569
4 *282:3 6.73311e-05
5 *282:5 0.00020555
6 *282:6 0.0001587
7 *282:7 8.16617e-05
8 *282:8 3.24501e-05
9 *282:9 8.16617e-05

*RES
1 *282:3 *749:Y 1.39999998
2 *282:3 *282:2 0.621429
3 *282:2 *282:5 0.497144
4 *282:5 *282:6 1.24286
5 *282:7 *282:6 1.39999998
6 *282:7 *282:9 0.372858
7 *282:8 *722:A2 1.39999998
8 *282:8 *282:9 1.39999998
9 *282:4 *282:8 0.0299927
*END

*D_NET *283 0.000614379

*CONN
*I *748:Y O *C 50.1075 29.145 *L 0 *D INVX1
*I *720:A1 I *C 48.285 32.045 *L 0.00271 *D OAI32X1

*CAP
1 *748:Y 3.67999e-05
2 *720:A1 3.67999e-05
3 *283:2 8.06492e-05
4 *283:3 9.13005e-05
5 *283:4 8.06492e-05
6 *283:5 9.84400195e-05
7 *283:6 9.84400195e-05
8 *283:7 9.13005e-05

*RES
1 *283:5 *748:Y 1.39999998
2 *283:5 *283:6 0.745715
3 *283:7 *283:6 1.39999998
4 *283:4 *720:A1 1.39999998
5 *283:3 *283:7 0.745715
6 *283:2 *283:4 0.372858
7 *283:2 *283:3 1.39999998
*END

*D_NET *284 0.000637489

*CONN
*I *746:Y O *C 22.5575 39.585 *L 0 *D CLKINVX1
*I *709:C I *C 23.635 37.265 *L 0.00167 *D OR4XL
*I *700:A0 I *C 24.48 39.9475 *L 0.00161 *D OAI211XL

*CAP
1 *746:Y 5.13193e-05
2 *709:C 3.68004e-05
3 *700:A0 2.56596e-05
4 *284:3 0.00018526
5 *284:4 8.1909e-05
6 *284:5 0.00018526
7 *284:6 2.92187e-05
8 *284:7 4.20584e-05

*RES
1 *284:3 *709:C 1.39999998
2 *284:7 *700:A0 0.386658
3 *284:3 *284:5 0.994287
4 *284:6 *284:7 0.193329
5 *284:4 *284:5 1.39999998
6 *284:4 *284:6 0.193329
7 *746:Y *284:4 0.773337
*END

*D_NET *285 0.00395405

*CONN
*I *747:Y O *C 33.5775 44.805 *L 0 *D CLKINVX1
*I *744:A I *C 38.715 34.655 *L 0.00157 *D NAND2XL
*I *743:A I *C 25.955 34.655 *L 0.00157 *D NAND2XL
*I *719:B0 I *C 36.975 42.485 *L 0.00279 *D OAI211X1
*I *700:B0 I *C 25.085 39.875 *L 0.0017 *D OAI211XL
*I *683:A0 I *C 34.365 47.705 *L 0.00258 *D AOI32X1

*CAP
1 *747:Y 3.67982e-05
2 *744:A 3.67982e-05
3 *743:A 3.67982e-05
4 *719:B0 3.67982e-05
5 *700:B0 3.67982e-05
6 *683:A0 2.56603e-05
7 *285:6 0.00025312
8 *285:7 0.000192187
9 *285:8 8.35427e-05
10 *285:9 6.07719e-05
11 *285:10 6.07719e-05
12 *285:11 0.000240428
13 *285:12 0.000240428
14 *285:13 3.77076e-05
15 *285:14 3.77076e-05
16 *285:15 7.80802e-05
17 *285:16 7.80802e-05
18 *285:17 0.00031688
19 *285:18 0.000290742
20 *285:19 0.000361518
21 *285:20 0.00037722
22 *285:21 7.63189e-05
23 *285:22 5.24775e-05
24 *285:23 0.000129401
25 *285:24 0.000129401
26 *285:25 5.86019e-05
27 *285:27 0.000143561
28 *285:28 5.12803e-05
29 *285:29 4.59617e-05
30 *285:30 5.21897e-05
31 *285:23 *68:10 0.000148
32 *285:24 *68:11 0.000147999994

*RES
1 *285:10 *744:A 1.39999
2 *285:10 *285:9 0.24856
3 *285:15 *285:9 1.39999
4 *285:16 *285:15 0.745729
5 *285:29 *683:A0 0.386671
6 *285:18 *285:16 1.39999
7 *285:25 *719:B0 1.39999
8 *285:30 *285:29 1.39999
9 *285:18 *285:17 2.85856
10 *285:17 *285:25 0.24856
11 *285:28 *285:30 0.621425
12 *285:23 *285:17 1.39999
13 *285:27 *285:28 0.124305
14 *285:24 *285:23 1.49141
15 *285:6 *285:27 0.745729
16 *285:6 *747:Y 1.39999
17 *285:7 *285:24 1.39999
18 *285:7 *285:6 1.24285
19 *285:8 *285:7 0.745729
20 *285:12 *743:A 1.39999
21 *285:19 *285:8 1.39999
22 *285:12 *285:11 2.11283
23 *285:20 *285:19 3.23142862
24 *285:21 *285:11 1.39999
25 *285:21 *285:20 0.24856
26 *285:22 *285:21 0.372865
27 *285:14 *285:22 1.39999
28 *285:13 *700:B0 1.39999
29 *285:14 *285:13 0.124305
30 *285:26 *285:13 0.182833
*END

*D_NET *286 0.00090815

*CONN
*I *745:Y O *C 40.0825 42.485 *L 0 *D INVXL
*I *728:C I *C 39.295 39.875 *L 0.00276 *D OR4X4
*I *719:A0 I *C 37.845 42.485 *L 0.00267 *D OAI211X1

*CAP
1 *745:Y 3.68007e-05
2 *728:C 3.68007e-05
3 *719:A0 3.68007e-05
4 *286:3 0.000134921
5 *286:4 0.000134921
6 *286:5 0.000135460293
7 *286:6 9.42404e-05
8 *286:7 6.11995e-05
9 *286:8 6.11995e-05
10 *286:9 0.00010461
11 *286:10 7.11996e-05

*RES
1 *286:10 *745:Y 1.39999998
2 *286:6 *728:C 1.39999998
3 *286:9 *286:10 0.372858
4 *286:6 *286:5 0.745715
5 *286:5 *286:9 0.372858
6 *286:3 *286:5 1.39999998
7 *286:7 *719:A0 1.39999998
8 *286:4 *286:3 0.621429
9 *286:8 *286:7 0.372858
10 *286:8 *286:4 1.39999998
*END

*D_NET *287 0.00291189

*CONN
*I *744:Y O *C 39.295 34.075 *L 0 *D NAND2XL
*I *728:A I *C 38.135 39.585 *L 0.00282 *D OR4X4
*I *724:AN I *C 45.385 32.045 *L 0.00174 *D NAND2BXL
*I *722:B0 I *C 45.385 37.555 *L 0.00271 *D OAI32X1
*I *718:A0 I *C 42.195 39.875 *L 0.00257 *D OAI32X1

*CAP
1 *744:Y 3.6798e-05
2 *728:A 3.6798e-05
3 *724:AN 3.6798e-05
4 *722:B0 3.6798e-05
5 *718:A0 3.6798e-05
6 *287:5 0.000255509
7 *287:6 0.0002406
8 *287:7 0.000102841
9 *287:8 0.000134677
10 *287:9 0.00025726
11 *287:10 0.00025726
12 *287:11 0.000135219
13 *287:12 0.000135898
14 *287:15 7.11111e-05
15 *287:16 0.00011167
16 *287:17 7.21121e-05
17 *287:18 7.12014e-05
18 *287:19 0.000157449
19 *287:20 3.24485e-05
20 *287:21 0.000158132
21 *287:22 4.73694e-05
22 *287:11 *32:21 1.438e-05
23 *287:12 *32:20 1.438e-05
24 *287:9 *32:21 0.00022919
25 *287:10 *32:20 0.000229189999

*RES
1 *287:6 *724:AN 1.40001
2 *287:20 *718:A0 1.40001
3 *287:14 *287:20 0.0300113
4 *287:5 *722:B0 1.40001
5 *287:6 *287:5 2.36141
6 *287:18 *744:Y 1.40001
7 *287:21 *287:20 1.40001
8 *287:5 *287:22 0.372842
9 *287:8 *287:18 0.372842
10 *287:19 *287:21 0.745731
11 *287:9 *287:22 1.40001
12 *287:8 *287:7 0.994308
13 *287:11 *287:19 0.124265
14 *287:10 *287:9 3.10714293
15 *287:15 *287:7 0.124265
16 *287:12 *287:11 0.994308
17 *287:16 *287:10 1.40001
18 *287:15 *287:16 0.869996
19 *287:17 *728:A 1.40001
20 *287:17 *287:12 1.40001
21 *287:16 *287:17 0.497154
22 *287:13 *287:17 0.193059
*END

*D_NET *288 0.00257651

*CONN
*I *743:Y O *C 25.375 34.075 *L 0 *D NAND2XL
*I *709:A I *C 24.505 37.265 *L 0.00181 *D OR4XL
*I *701:B0 I *C 21.895 32.335 *L 0.00271 *D OAI32X1
*I *699:A0 I *C 18.995 42.485 *L 0.00257 *D OAI32X1
*I *696:A0 I *C 18.995 32.045 *L 0.00257 *D OAI32X1

*CAP
1 *743:Y 2.56616e-05
2 *709:A 3.6802e-05
3 *701:B0 3.6802e-05
4 *699:A0 3.6802e-05
5 *696:A0 2.56616e-05
6 *288:5 0.000293608
7 *288:6 0.00032872
8 *288:7 6.6371e-05
9 *288:8 0.000199218
10 *288:9 0.000134678
11 *288:10 9.83527e-05
12 *288:11 8.22314e-05
13 *288:12 8.34302e-05
14 *288:13 0.000177429
15 *288:14 0.000177429
16 *288:15 4.59611e-05
17 *288:16 5.83003e-05
18 *288:17 5.83003e-05
19 *288:18 0.000192688
20 *288:19 0.000192688
21 *288:20 6.68676e-05
22 *288:21 4.59611e-05
23 *288:22 7.34786e-05
24 *288:23 3.90692e-05

*RES
1 *288:23 *709:A 1.40001
2 *288:19 *288:23 0.124284
3 *288:18 *288:19 1.24287
4 *288:21 *743:Y 0.386682
5 *288:12 *699:A0 1.40001
6 *288:18 *288:22 0.124284
7 *288:22 *288:21 1.40001
8 *288:11 *288:12 0.372851
9 *288:16 *701:B0 1.40001
10 *288:20 *288:22 0.497135
11 *288:11 *288:14 0.124284
12 *288:16 *288:17 0.372851
13 *288:10 *288:20 1.40001
14 *288:13 *288:14 1.49144
15 *288:8 *288:17 1.40001
16 *288:8 *288:10 1.11859
17 *288:13 *288:5 0.124284
18 *288:9 *288:8 0.994271
19 *288:6 *288:5 2.1128571
20 *288:6 *288:9 1.40001
21 *288:7 *288:6 0.497135
22 *288:15 *288:7 1.40001
23 *696:A0 *288:15 0.386682
*END

*D_NET *289 0.00182841

*CONN
*I *742:Y O *C 52.345 22.185 *L 0 *D NAND2XL
*I *734:B I *C 46.545 24.215 *L 0.00171 *D NOR2XL
*I *733:AN I *C 47.415 29.145 *L 0.00178 *D NAND2BX1
*I *732:A1 I *C 47.995 23.635 *L 0.00163 *D AOI21XL

*CAP
1 *742:Y 3.67997e-05
2 *734:B 3.67997e-05
3 *733:AN 3.67997e-05
4 *732:A1 3.67997e-05
5 *289:4 0.000133208
6 *289:5 4.68278e-05
7 *289:6 0.000156559
8 *289:7 0.00017099
9 *289:8 0.000133269
10 *289:9 0.00020011
11 *289:10 0.000230169
12 *289:11 0.00017897
13 *289:12 0.00023674
14 *289:13 9.15785e-05
15 *289:15 3.24504e-05
16 *289:16 7.03302e-05

*RES
1 *289:6 *733:AN 1.39999
2 *289:16 *742:Y 1.39999
3 *289:7 *289:6 1.49142861
4 *289:10 *289:16 0.372857
5 *289:5 *732:A1 1.39999
6 *289:7 *289:8 0.248579
7 *289:10 *289:9 0.994293
8 *289:5 *289:4 0.248579
9 *289:4 *289:8 0.745714
10 *289:11 *289:9 1.39999
11 *289:12 *289:4 1.39999
12 *289:12 *289:11 1.36715
13 *289:13 *289:12 0.621436
14 *289:15 *734:B 1.39999
15 *289:15 *289:13 1.39999
16 *289:14 *289:15 0.193051
*END

*D_NET *290 0.000369941

*CONN
*I *740:Y O *C 18.125 36.975 *L 0 *D NOR2XL
*I *703:A0 I *C 17.255 34.655 *L 0.00164 *D OAI21XL

*CAP
1 *740:Y 3.68001e-05
2 *703:A0 3.68001e-05
3 *290:2 5.45689e-05
4 *290:3 8.46306e-05
5 *290:4 9.36e-05
6 *290:5 6.35397e-05

*RES
1 *290:5 *740:Y 1.39999998
2 *290:4 *290:5 0.621429
3 *290:3 *290:4 0.372858
4 *290:2 *290:3 0.248572
5 *703:A0 *290:2 1.39999998
*END

*D_NET *291 0.000721881

*CONN
*I *739:Y O *C 42.775 36.975 *L 0 *D NOR2XL
*I *721:A0 I *C 40.455 39.585 *L 0.00271 *D OAI21X1

*CAP
1 *739:Y 3.68011e-05
2 *721:A0 3.68011e-05
3 *291:2 0.00023219
4 *291:3 0.000121649
5 *291:4 9.19513e-05
6 *291:5 0.000202493

*RES
1 *291:4 *739:Y 1.39999998
2 *291:3 *721:A0 1.39999998
3 *291:4 *291:5 0.621429
4 *291:2 *291:3 0.621429
5 *291:2 *291:5 0.994287
*END

*D_NET *292 0.00118899

*CONN
*I *741:Y O *C 39.585 37.845 *L 0 *D NAND2XL
*I *736:AN I *C 39.585 32.335 *L 0.00178 *D NAND2BX1
*I *727:A I *C 43.645 32.335 *L 0.00162 *D NOR2XL

*CAP
1 *741:Y 3.67989e-05
2 *736:AN 3.67989e-05
3 *727:A 3.67989e-05
4 *292:4 0.000104061
5 *292:5 0.00010497
6 *292:6 0.00015591
7 *292:7 0.000151209
8 *292:8 0.000154999
9 *292:9 0.000150531
10 *292:10 0.000111888
11 *292:11 3.245e-05
12 *292:12 0.000112571

*RES
1 *292:5 *741:Y 1.39999
2 *292:4 *292:5 0.621436
3 *292:4 *292:8 0.124278
4 *292:6 *736:AN 1.39999
5 *292:6 *292:8 1.49142861
6 *292:7 *292:6 1.39999
7 *292:7 *292:9 0.745714
8 *292:9 *292:10 0.124278
9 *292:10 *292:12 0.994293
10 *292:11 *727:A 1.39999
11 *292:11 *292:12 1.39999
12 *292:3 *292:11 0.193051
*END

*D_NET *293 0.000914331

*CONN
*I *737:Y O *C 51.475 27.115 *L 0 *D XNOR2XL
*I *735:B I *C 53.505 21.605 *L 0.00171 *D NOR2XL

*CAP
1 *737:Y 3.68009e-05
2 *735:B 3.68009e-05
3 *293:2 9.54314e-05
4 *293:3 9.54314e-05
5 *293:4 0.000147211
6 *293:5 0.000132781
7 *293:6 5.46989e-05
8 *293:7 0.000157589541
9 *293:8 0.000157589541

*RES
1 *293:7 *735:B 1.39999998
2 *293:7 *293:8 0.994287
3 *293:2 *293:8 1.39999998
4 *293:3 *293:2 0.621429
5 *293:6 *293:3 1.39999998
6 *293:5 *737:Y 1.39999998
7 *293:4 *293:6 0.248572
8 *293:4 *293:5 1.11857
*END

*D_NET *294 0.0015474

*CONN
*I *738:Y O *C 21.605 36.975 *L 0 *D NAND3X1
*I *711:B I *C 28.565 39.585 *L 0.00272 *D NOR3X1
*I *707:A I *C 23.925 34.655 *L 0.00157 *D NAND2XL

*CAP
1 *738:Y 5.13186e-05
2 *711:B 3.67992e-05
3 *707:A 3.67992e-05
4 *294:3 0.000148941
5 *294:4 0.000148941
6 *294:5 0.000228569219
7 *294:6 0.000228569219
8 *294:7 6.00101e-05
9 *294:8 7.25102e-05
10 *294:9 0.000225409
11 *294:10 0.000225409
12 *294:11 8.41209e-05

*RES
1 *294:5 *711:B 1.4
2 *294:6 *294:5 1.49143
3 *294:9 *294:6 1.4
4 *294:4 *707:A 1.4
5 *294:10 *294:9 1.98857141
6 *294:4 *294:3 0.745714
7 *294:3 *294:10 1.4
8 *294:7 *294:3 1.4
9 *294:8 *294:7 0.773327
10 *294:8 *294:11 0.386663
11 *738:Y *294:11 0.773327
*END

*D_NET *295 0.000622312

*CONN
*I *749:B I *C 41.905 32.045 *L 0.00541 *D NAND2BX2
*I *736:Y O *C 40.455 32.915 *L 0 *D NAND2BX1
*I *730:C I *C 38.425 31.755 *L 0.00177 *D NOR3XL

*CAP
1 *749:B 3.68005e-05
2 *736:Y 3.68005e-05
3 *730:C 3.68005e-05
4 *295:3 5.52802e-05
5 *295:4 7.58504e-05
6 *295:5 4.40096e-05
7 *295:6 0.00017363
8 *295:7 0.00012092
9 *295:8 4.22212e-05

*RES
1 *295:8 *749:B 1.39999998
2 *295:7 *295:8 0.248572
3 *295:6 *295:7 0.745715
4 *295:6 *736:Y 1.39999998
5 *295:4 *295:6 0.497144
6 *295:4 *295:5 0.124286
7 *295:3 *295:5 0.248572
8 *730:C *295:3 1.39999998
*END

*D_NET *296 0.00188556

*CONN
*I *655:A I *C 68.295 21.605 *L 0.00172 *D CLKBUFX2
*I *735:Y O *C 53.795 21.315 *L 0 *D NOR2XL

*CAP
1 *655:A 3.6802e-05
2 *735:Y 3.6802e-05
3 *296:2 0.0008254
4 *296:3 0.0008254
5 *296:5 3.80993e-05
6 *296:6 3.80993e-05
7 *296:7 4.24822e-05
8 *296:8 4.24822e-05

*RES
1 *296:8 *655:A 1.39996
2 *296:7 *296:8 0.24853
3 *296:2 *296:7 1.39996
4 *296:3 *296:2 6.21428585
5 *296:5 *296:3 1.39996
6 *296:5 *296:6 0.124312
7 *296:6 *735:Y 1.39996
8 *296:4 *296:6 0.182818
*END

*D_NET *297 0.00042521

*CONN
*I *734:Y O *C 46.835 24.505 *L 0 *D NOR2XL
*I *732:B0 I *C 48.575 23.925 *L 0.00166 *D AOI21XL

*CAP
1 *734:Y 3.67998e-05
2 *732:B0 3.92004e-05
3 *297:2 3.78301e-05
4 *297:3 5.34606e-05
5 *297:4 5.46993e-05
6 *297:5 6.648e-05
7 *297:6 6.89700488e-05
8 *297:7 6.77703e-05

*RES
1 *297:5 *732:B0 0.580008
2 *297:6 *297:5 1.39999998
3 *297:6 *297:7 0.248572
4 *297:2 *297:7 0.124286
5 *297:3 *297:2 0.124286
6 *297:4 *297:3 0.248572
7 *734:Y *297:4 1.39999998
*END

*D_NET *298 0.00356393

*CONN
*I *733:Y O *C 46.545 28.565 *L 0 *D NAND2BX1
*I *731:A I *C 40.455 34.365 *L 0.00273 *D INVX1
*I *730:B I *C 38.135 32.045 *L 0.00172 *D NOR3XL
*I *728:D I *C 39.585 39.585 *L 0.00273 *D OR4X4
*I *727:B I *C 43.935 32.045 *L 0.00171 *D NOR2XL
*I *722:A1 I *C 43.935 37.265 *L 0.00271 *D OAI32X1
*I *718:A2 I *C 42.775 39.875 *L 0.00281 *D OAI32X1

*CAP
1 *733:Y 2.66218e-05
2 *731:A 3.67974e-05
3 *730:B 3.67974e-05
4 *728:D 1.28222e-05
5 *727:B 3.67974e-05
6 *722:A1 3.67974e-05
7 *718:A2 3.67974e-05
8 *298:7 4.35503e-05
9 *298:8 4.35503e-05
10 *298:9 0.000204091
11 *298:10 0.000227202
12 *298:11 9.42982e-05
13 *298:12 0.00027487918
14 *298:13 0.00024874
15 *298:14 7.11913e-05
16 *298:15 0.000263173
17 *298:16 4.92505e-05
18 *298:17 0.000109268
19 *298:18 0.000109268
20 *298:19 6.03111e-05
21 *298:20 6.03111e-05
22 *298:21 0.000246378
23 *298:22 0.00019186
24 *298:23 0.00017569
25 *298:24 5.85998e-05
26 *298:25 9.15425e-05
27 *298:26 9.15425e-05
28 *298:27 0.00022411
29 *298:28 0.00022411
30 *298:30 4.00983e-05
31 *298:31 3.24478e-05
32 *298:32 5.8109e-05
33 *298:33 4.69226e-05

*RES
1 *298:33 *733:Y 0.386682
2 *298:21 *722:A1 1.40001
3 *298:26 *298:33 1.40001
4 *298:7 *730:B 1.40001
5 *298:15 *727:B 1.40001
6 *298:15 *298:21 2.1128571
7 *298:26 *298:25 0.621419
8 *298:8 *298:7 0.372851
9 *298:16 *298:15 0.497135
10 *298:14 *298:25 1.40001
11 *298:11 *298:8 1.40001
12 *298:9 *298:16 1.40001
13 *298:9 *298:14 0.745703
14 *298:11 *298:10 0.994271
15 *298:10 *298:9 1.49144
16 *298:18 *731:A 1.40001
17 *298:28 *298:10 1.40001
18 *298:18 *298:17 0.497135
19 *298:28 *298:27 1.98857
20 *298:19 *298:17 1.40001
21 *298:19 *298:27 1.40001
22 *298:20 *298:19 0.248568
23 *728:D *298:30 0.193341
24 *298:13 *298:20 1.40001
25 *298:24 *298:30 1.40001
26 *298:13 *298:12 1.61572
27 *298:12 *298:24 0.248568
28 *298:23 *298:12 1.40001
29 *298:23 *298:22 1.24287
30 *298:22 *298:32 0.248568
31 *298:31 *718:A2 1.40001
32 *298:31 *298:32 1.40001
33 *298:29 *298:31 0.0300151
*END

*D_NET *299 0.00029507

*CONN
*I *732:Y O *C 48.395 23.56 *L 0 *D AOI21XL
*I *726:B I *C 49.445 24.215 *L 0.00171 *D NOR2XL

*CAP
1 *732:Y 3.67995e-05
2 *726:B 3.67995e-05
3 *299:2 3.90699e-05
4 *299:3 3.86996e-05
5 *299:4 3.86996e-05
6 *299:5 5.31002881e-05
7 *299:6 5.19003e-05

*RES
1 *299:5 *726:B 1.39999998
2 *299:5 *299:6 0.248572
3 *299:4 *299:6 0.124286
4 *299:3 *299:4 0.124286
5 *299:2 *299:3 0.124286
6 *732:Y *299:2 1.39999998
*END

*D_NET *300 0.00127172

*CONN
*I *731:Y O *C 40.0825 34.365 *L 0 *D INVX1
*I *729:B0 I *C 40.745 37.555 *L 0.0028 *D OAI21X1
*I *722:B1 I *C 44.805 37.265 *L 0.00282 *D OAI32X1

*CAP
1 *731:Y 3.67984e-05
2 *729:B0 3.67984e-05
3 *722:B1 3.67984e-05
4 *300:3 0.000154032
5 *300:4 0.00013902
6 *300:5 0.000100359
7 *300:6 0.000115371
8 *300:7 0.00029561
9 *300:8 0.00029561
10 *300:10 3.06594e-05
11 *300:11 3.06594e-05

*RES
1 *300:4 *731:Y 1.4
2 *300:4 *300:3 0.745718
3 *300:3 *300:6 0.248564
4 *300:5 *729:B0 1.4
5 *300:6 *300:5 0.497154
6 *300:8 *300:5 1.4
7 *300:10 *722:B1 1.4
8 *300:8 *300:7 1.74000001
9 *300:10 *300:11 0.124282
10 *300:11 *300:7 1.4
11 *300:9 *300:11 0.182852
*END

*D_NET *301 0.00045934

*CONN
*I *728:Y O *C 37.845 40.165 *L 0 *D OR4X4
*I *717:B I *C 35.525 39.875 *L 0.00167 *D NAND2XL

*CAP
1 *728:Y 3.67994e-05
2 *717:B 3.67994e-05
3 *301:2 0.00014287
4 *301:3 0.00014287
5 *301:6 3.24501e-05
6 *301:7 3.04706e-05
7 *301:8 3.70806e-05

*RES
1 *301:5 *301:8 0.18284
2 *301:8 *728:Y 1.39999998
3 *301:7 *301:8 0.124286
4 *301:2 *301:7 1.39999998
5 *301:3 *301:2 0.994287
6 *301:6 *717:B 1.39999998
7 *301:6 *301:3 1.39999998
8 *301:4 *301:6 0.193051
*END

*D_NET *302 0.00132207

*CONN
*I *730:Y O *C 38.715 32.335 *L 0 *D NOR3XL
*I *725:B I *C 31.465 32.045 *L 0.00167 *D NAND2XL
*I *723:B I *C 32.625 34.655 *L 0.00233 *D XNOR2XL

*CAP
1 *730:Y 3.68001e-05
2 *725:B 3.68001e-05
3 *723:B 3.68001e-05
4 *302:3 9.49311e-05
5 *302:4 0.000149590273
6 *302:5 0.00012232
7 *302:6 7.54696e-05
8 *302:7 0.000129499
9 *302:8 0.000129499
10 *302:9 4.16392e-05
11 *302:10 4.16392e-05
12 *302:11 4.12603e-05
13 *302:12 0.00013153
14 *302:13 0.00013153
15 *302:14 6.10413e-05
16 *302:15 6.17193e-05

*RES
1 *302:10 *730:Y 1.39999998
2 *302:10 *302:9 0.248572
3 *302:15 *302:9 1.39999998
4 *302:14 *302:15 0.372858
5 *302:13 *302:14 0.124286
6 *302:12 *302:13 1.11857
7 *302:12 *302:7 0.124286
8 *302:8 *302:7 1.11857
9 *302:3 *723:B 1.39999998
10 *302:8 *302:11 0.124286
11 *302:4 *302:3 0.621429
12 *302:4 *302:11 1.39999998
13 *302:5 *302:4 0.497144
14 *302:6 *302:5 0.497144
15 *725:B *302:6 1.39999998
*END

*D_NET *303 0.00147558

*CONN
*I *729:Y O *C 40.455 37.845 *L 0 *D OAI21X1
*I *721:A1 I *C 40.745 39.875 *L 0.00274 *D OAI21X1
*I *719:A1 I *C 37.265 42.485 *L 0.00278 *D OAI211X1

*CAP
1 *729:Y 3.68005e-05
2 *721:A1 3.68005e-05
3 *719:A1 3.68005e-05
4 *303:3 0.000241679844
5 *303:4 0.000209839
6 *303:5 0.000189612
7 *303:6 0.000189612
8 *303:7 0.000101569
9 *303:8 0.000101569
10 *303:9 3.93599e-05
11 *303:10 5.82709e-05
12 *303:11 0.000153021
13 *303:12 8.06521e-05

*RES
1 *303:9 *729:Y 1.39999
2 *303:4 *303:9 0.12428
3 *303:10 *721:A1 1.39999
4 *303:4 *303:3 1.11857
5 *303:10 *303:11 0.24856
6 *303:3 *303:11 0.372865
7 *303:11 *303:12 0.372865
8 *303:5 *303:12 1.39999
9 *303:8 *719:A1 1.39999
10 *303:6 *303:5 1.61571431
11 *303:7 *303:8 0.497145
12 *303:7 *303:6 1.39999
*END

*D_NET *304 0.000708492

*CONN
*I *653:A I *C 48.865 29.435 *L 0.00172 *D CLKBUFX2
*I *726:Y O *C 49.735 24.505 *L 0 *D NOR2XL

*CAP
1 *653:A 3.67987e-05
2 *726:Y 3.67987e-05
3 *304:2 0.000147132
4 *304:3 0.00013212
5 *304:4 3.93612e-05
6 *304:5 0.0001661
7 *304:6 0.000150181

*RES
1 *304:3 *726:Y 1.39999998
2 *304:3 *304:2 0.994287
3 *304:5 *304:2 0.248572
4 *304:5 *304:6 1.11857
5 *304:4 *304:6 0.124286
6 *653:A *304:4 1.39999998
*END

*D_NET *305 0.00101059

*CONN
*I *727:Y O *C 44.225 31.755 *L 0 *D NOR2XL
*I *724:B I *C 45.965 32.335 *L 0.00168 *D NAND2BXL
*I *720:A2 I *C 47.995 32.045 *L 0.00281 *D OAI32X1

*CAP
1 *727:Y 3.6799e-05
2 *724:B 3.6799e-05
3 *720:A2 3.6799e-05
4 *305:3 0.000120059
5 *305:4 0.000120059
6 *305:5 5.52805e-05
7 *305:6 7.70204e-05
8 *305:7 4.51812e-05
9 *305:8 0.00012965
10 *305:9 0.000114411
11 *305:10 6.40703e-05
12 *305:11 8.72306e-05
13 *305:12 8.72306e-05

*RES
1 *305:11 *720:A2 1.39999998
2 *305:11 *305:12 0.372858
3 *305:3 *305:12 1.39999998
4 *305:4 *305:3 0.870001
5 *305:10 *305:4 1.39999998
6 *305:9 *724:B 1.39999998
7 *305:9 *305:10 0.248572
8 *305:8 *305:9 0.372858
9 *305:6 *305:8 0.497144
10 *305:6 *305:7 0.124286
11 *305:5 *305:7 0.248572
12 *727:Y *305:5 1.39999998
*END

*D_NET *306 8.40801e-05

*CONN
*I *724:Y O *C 46.255 32.625 *L 0 *D NAND2BXL
*I *720:B0 I *C 46.835 32.335 *L 0.00271 *D OAI32X1

*CAP
1 *724:Y 1.28201e-05
2 *720:B0 1.28201e-05
3 *306:2 2.922e-05
4 *306:3 2.922e-05

*RES
1 *306:3 *720:B0 0.193333328
2 *306:2 *306:3 0.193333328
3 *724:Y *306:2 0.193333328
*END

*D_NET *307 0.00121434

*CONN
*I *725:Y O *C 31.465 32.625 *L 0 *D NAND2XL
*I *715:B I *C 26.245 32.335 *L 0.0028 *D NOR2BX1
*I *714:B I *C 27.115 32.045 *L 0.00171 *D NOR2XL
*I *713:A1 I *C 28.565 32.625 *L 0.00163 *D AOI21XL

*CAP
1 *725:Y 3.6798e-05
2 *715:B 3.6798e-05
3 *714:B 3.6798e-05
4 *713:A1 3.6798e-05
5 *307:4 0.000143401
6 *307:5 0.00021398
7 *307:6 3.68306e-05
8 *307:7 8.01719e-05
9 *307:8 5.93796e-05
10 *307:9 5.93796e-05
11 *307:10 0.00013389
12 *307:11 0.00013389
13 *307:12 7.25707e-05
14 *307:13 4.16401e-05
15 *307:14 9.20112e-05

*RES
1 *307:8 *725:Y 1.39999998
2 *307:9 *307:8 0.248572
3 *307:10 *307:9 1.39999998
4 *307:4 *713:A1 1.39999998
5 *307:11 *307:10 1.36714
6 *307:5 *307:4 0.621429
7 *307:5 *307:11 1.39999998
8 *307:14 *307:5 0.621429
9 *307:6 *714:B 1.39999998
10 *307:13 *715:B 1.39999998
11 *307:14 *307:7 0.124286
12 *307:7 *307:6 0.248572
13 *307:12 *307:13 0.248572
14 *307:12 *307:7 0.372858
*END

*D_NET *308 0.000457481

*CONN
*I *723:Y O *C 30.595 34.365 *L 0 *D XNOR2XL
*I *716:B I *C 32.045 37.265 *L 0.00171 *D NOR2XL

*CAP
1 *723:Y 3.67998e-05
2 *716:B 3.67998e-05
3 *308:2 5.96808e-05
4 *308:3 9.061e-05
5 *308:4 7.25696e-05
6 *308:5 5.66501e-05
7 *308:6 5.96905e-05
8 *308:7 4.46807e-05

*RES
1 *308:7 *716:B 1.39999998
2 *308:6 *308:7 0.248572
3 *308:5 *308:6 0.248572
4 *308:4 *308:5 0.248572
5 *308:3 *308:4 0.372858
6 *308:2 *308:3 0.497144
7 *723:Y *308:2 1.39999998
*END

*D_NET *309 0.00108622

*CONN
*I *643:A I *C 37.845 34.655 *L 0.00172 *D CLKBUFX2
*I *722:Y O *C 44.515 36.395 *L 0 *D OAI32X1

*CAP
1 *643:A 3.68003e-05
2 *722:Y 3.68003e-05
3 *309:2 7.38606e-05
4 *309:3 7.38606e-05
5 *309:4 0.00019136
6 *309:5 9.96993e-05
7 *309:6 0.00019068
8 *309:7 9.96993e-05
9 *309:8 8.04597e-05
10 *309:9 6.09309e-05
11 *309:10 8.114e-05
12 *309:11 6.09309e-05

*RES
1 *309:11 *722:Y 1.39999
2 *309:9 *309:11 0.372857
3 *309:10 *309:9 1.39999
4 *309:8 *309:10 0.372857
5 *309:7 *309:8 0.124278
6 *309:5 *309:7 0.994293
7 *309:5 *309:6 0.124278
8 *309:4 *309:6 1.49142861
9 *309:3 *309:4 1.39999
10 *309:2 *309:3 0.497135
11 *643:A *309:2 1.39999
*END

*D_NET *310 0.000355527

*CONN
*I *721:Y O *C 41.615 39.295 *L 0 *D OAI21X1
*I *718:B1 I *C 43.355 39.875 *L 0.00282 *D OAI32X1

*CAP
1 *721:Y 3.67992e-05
2 *718:B1 3.67992e-05
3 *310:2 0.000118971
4 *310:3 0.000120829326
5 *310:4 4.21294e-05

*RES
1 *310:4 *718:B1 1.39999998
2 *310:3 *310:4 0.372858
3 *310:2 *310:3 0.745715
4 *721:Y *310:2 1.39999998
*END

*D_NET *311 0.00286008

*CONN
*I *642:A I *C 52.345 55.535 *L 0.00172 *D CLKBUFX2
*I *720:Y O *C 47.705 31.175 *L 0 *D OAI32X1

*CAP
1 *642:A 3.67981e-05
2 *720:Y 3.67981e-05
3 *311:2 0.00080012
4 *311:3 0.00080012
5 *311:4 0.000136058
6 *311:5 0.000136326
7 *311:6 5.7175e-05
8 *311:7 5.60029e-05
9 *311:8 0.000186628
10 *311:9 0.000187543
11 *311:10 0.000213255
12 *311:11 0.000213255

*RES
1 *311:6 *642:A 1.40005
2 *311:7 *311:6 0.372872
3 *311:7 *311:4 0.124255
4 *311:5 *311:4 1.11862
5 *311:8 *311:5 0.124255
6 *311:9 *311:8 1.61574
7 *311:11 *311:9 1.40005
8 *311:10 *311:11 1.98862
9 *311:2 *311:10 1.40005
10 *311:3 *311:2 6.96000004
11 *720:Y *311:3 1.40005
*END

*D_NET *312 0.00033424

*CONN
*I *719:Y O *C 36.395 41.905 *L 0 *D OAI211X1
*I *717:A I *C 36.105 39.875 *L 0.00157 *D NAND2XL

*CAP
1 *719:Y 3.67998e-05
2 *717:A 3.67998e-05
3 *312:2 5.05793e-05
4 *312:3 4.96699e-05
5 *312:4 7.97406e-05
6 *312:5 8.065e-05

*RES
1 *312:5 *719:Y 1.39999998
2 *312:4 *312:5 0.372858
3 *312:3 *312:4 0.124286
4 *312:2 *312:3 0.497144
5 *717:A *312:2 1.39999998
*END

*D_NET *313 0.000979125

*CONN
*I *630:A I *C 50.605 42.195 *L 0.00172 *D DLY3X1
*I *718:Y O *C 43.065 40.745 *L 0 *D OAI32X1

*CAP
1 *630:A 3.67981e-05
2 *718:Y 3.67981e-05
3 *313:2 0.00035897
4 *313:3 0.00035897
5 *313:5 3.24489e-05
6 *313:6 7.75673e-05
7 *313:7 7.75673e-05

*RES
1 *313:7 *630:A 1.39999
2 *313:6 *313:7 0.621425
3 *313:2 *313:6 1.39999
4 *313:3 *313:2 3.23142862
5 *313:5 *313:3 1.39999
6 *313:5 *718:Y 1.39999
7 *313:4 *313:5 0.19304
*END

*D_NET *314 0.000579981

*CONN
*I *717:Y O *C 35.525 39.295 *L 0 *D NAND2XL
*I *680:D I *C 33.785 37.265 *L 0.00216 *D DFFHQX1

*CAP
1 *717:Y 3.67996e-05
2 *680:D 3.67996e-05
3 *314:2 8.72304785e-05
4 *314:3 8.72304785e-05
5 *314:4 8.049e-05
6 *314:5 8.049e-05
7 *314:6 8.54695e-05
8 *314:7 8.54695e-05

*RES
1 *314:4 *717:Y 1.39999998
2 *314:5 *314:4 0.621429
3 *314:7 *314:5 1.39999998
4 *314:6 *314:7 0.621429
5 *314:2 *314:6 1.39999998
6 *314:3 *314:2 0.372858
7 *680:D *314:3 1.39999998
*END

*D_NET *315 0.000506318

*CONN
*I *716:Y O *C 32.335 36.975 *L 0 *D NOR2XL
*I *670:D I *C 30.595 36.975 *L 0.0016 *D DFFQX1

*CAP
1 *716:Y 3.67988e-05
2 *670:D 3.67988e-05
3 *315:2 3.95097e-05
4 *315:3 3.95097e-05
5 *315:4 2.95407e-05
6 *315:5 2.95407e-05
7 *315:6 0.00014731
8 *315:7 0.00014731

*RES
1 *315:9 *315:2 0.18284
2 *315:2 *716:Y 1.39999998
3 *315:3 *315:2 0.124286
4 *315:6 *315:3 1.39999998
5 *315:7 *315:6 0.745715
6 *315:5 *315:7 1.39999998
7 *315:4 *670:D 1.39999998
8 *315:5 *315:4 0.124286
9 *315:8 *315:4 0.18284
*END

*D_NET *316 0.000428789

*CONN
*I *714:Y O *C 27.405 31.755 *L 0 *D NOR2XL
*I *713:B0 I *C 29.145 32.335 *L 0.00166 *D AOI21XL

*CAP
1 *714:Y 3.68e-05
2 *713:B0 3.992e-05
3 *316:2 5.52792e-05
4 *316:3 3.81194e-05
5 *316:4 5.40401e-05
6 *316:5 6.82594e-05
7 *316:6 6.71997e-05
8 *316:7 6.91702246e-05

*RES
1 *316:6 *713:B0 0.580008
2 *316:7 *316:6 1.39999998
3 *316:5 *316:7 0.248572
4 *316:3 *316:5 0.124286
5 *316:3 *316:4 0.124286
6 *316:2 *316:4 0.248572
7 *714:Y *316:2 1.39999998
*END

*D_NET *317 0.00227572

*CONN
*I *715:Y O *C 26.525 32.335 *L 0 *D NOR2BX1
*I *712:A I *C 26.535 34.365 *L 0.00273 *D CLKINVX1
*I *710:B0 I *C 21.025 34.365 *L 0.0028 *D OAI21X1
*I *707:B I *C 23.345 34.655 *L 0.00167 *D NAND2XL
*I *705:C I *C 20.155 39.585 *L 0.00168 *D NAND3XL
*I *701:B1 I *C 22.475 32.045 *L 0.00282 *D OAI32X1

*CAP
1 *715:Y 3.67993e-05
2 *712:A 3.67993e-05
3 *710:B0 3.67993e-05
4 *707:B 3.67993e-05
5 *705:C 3.67993e-05
6 *701:B1 3.67993e-05
7 *317:6 0.000189271
8 *317:7 0.0002037
9 *317:8 0.000240730859
10 *317:9 0.000240730859
11 *317:10 5.44312e-05
12 *317:11 0.000109972
13 *317:12 8.80017e-05
14 *317:13 6.45108e-05
15 *317:14 6.45108e-05
16 *317:15 0.000174001
17 *317:16 0.00011316
18 *317:17 8.77996e-05
19 *317:18 2.71091e-05
20 *317:19 4.2739e-05
21 *317:20 5.69107e-05
22 *317:21 8.71788e-05
23 *317:22 6.15281e-05
24 *317:23 0.000148641

*RES
1 *317:12 *715:Y 1.39999
2 *317:11 *712:A 1.39999
3 *317:12 *317:11 0.870009
4 *317:14 *707:B 1.39999
5 *317:11 *317:10 0.497145
6 *317:9 *701:B1 1.39999
7 *317:14 *317:13 0.372865
8 *317:23 *317:10 1.39999
9 *317:9 *317:8 1.61571431
10 *317:15 *317:13 1.39999
11 *317:15 *317:23 1.36715
12 *317:16 *317:8 1.39999
13 *317:16 *317:15 0.372865
14 *317:20 *710:B0 1.39999
15 *317:17 *317:16 0.621425
16 *317:20 *317:21 0.372865
17 *317:21 *317:17 1.39999
18 *317:21 *317:22 0.497145
19 *317:18 *317:22 0.12428
20 *317:6 *705:C 1.39999
21 *317:18 *317:19 0.12428
22 *317:7 *317:6 1.11857
23 *317:7 *317:19 0.24856
*END

*D_NET *318 0.00034028

*CONN
*I *713:Y O *C 28.965 32.7 *L 0 *D AOI21XL
*I *708:B I *C 30.015 32.045 *L 0.00171 *D NOR2XL

*CAP
1 *713:Y 3.68001e-05
2 *708:B 3.68001e-05
3 *318:2 7.9079707e-05
4 *318:3 6.40698e-05
5 *318:4 6.92694e-05
6 *318:5 5.42595e-05

*RES
1 *318:5 *708:B 1.39999998
2 *318:4 *318:5 0.372858
3 *318:3 *713:Y 1.39999998
4 *318:2 *318:4 0.248572
5 *318:2 *318:3 0.248572
*END

*D_NET *319 0.00284721

*CONN
*I *712:Y O *C 26.9075 34.365 *L 0 *D CLKINVX1
*I *711:C I *C 28.855 39.875 *L 0.00278 *D NOR3X1
*I *709:D I *C 23.345 37.265 *L 0.00161 *D OR4XL
*I *696:A2 I *C 18.415 32.045 *L 0.00281 *D OAI32X1

*CAP
1 *712:Y 3.67991e-05
2 *711:C 3.67991e-05
3 *709:D 2.6723e-05
4 *696:A2 3.67991e-05
5 *319:4 0.00013352
6 *319:5 0.00013352
7 *319:6 0.00019775
8 *319:7 0.00019775
9 *319:8 6.09179e-05
10 *319:9 6.09179e-05
11 *319:10 4.39724e-05
12 *319:11 4.48788e-05
13 *319:12 0.000117618
14 *319:13 0.00025949
15 *319:14 0.00034339
16 *319:15 0.000200611
17 *319:16 4.70167e-05
18 *319:17 3.93613e-05
19 *319:18 0.00025664
20 *319:19 0.000255728
21 *319:19 *126:69 0.0001585
22 *319:18 *126:70 0.000158500001

*RES
1 *319:17 *711:C 1.39998
2 *319:17 *319:19 0.124295
3 *319:16 *709:D 0.386665
4 *319:18 *319:19 2.6099999
5 *319:8 *712:Y 1.39998
6 *319:6 *319:16 1.39998
7 *319:12 *319:18 1.39998
8 *319:9 *319:8 0.24859
9 *319:7 *319:6 1.49142
10 *319:13 *319:12 0.994282
11 *319:13 *319:9 1.39998
12 *319:14 *319:7 1.39998
13 *319:14 *319:13 1.74001
14 *319:15 *319:14 1.61572
15 *319:10 *319:15 0.124295
16 *319:11 *319:10 0.24859
17 *319:4 *319:11 1.39998
18 *319:5 *319:4 0.621436
19 *696:A2 *319:5 1.39998
*END

*D_NET *320 0.00070301

*CONN
*I *709:Y O *C 25.07 37.0625 *L 0 *D OR4XL
*I *697:B I *C 25.085 42.485 *L 0.00167 *D NAND2XL

*CAP
1 *709:Y 3.67994e-05
2 *697:B 3.67994e-05
3 *320:2 8.87502e-05
4 *320:3 8.87502e-05
5 *320:7 3.24505e-05
6 *320:8 3.38008e-05
7 *320:9 0.00017593
8 *320:10 3.38008e-05
9 *320:11 0.00017593

*RES
1 *320:2 *697:B 1.39999
2 *320:3 *320:2 0.621425
3 *320:10 *320:3 1.39999
4 *320:6 *320:10 0.193064
5 *320:11 *320:10 1.39999
6 *320:9 *320:11 1.61571431
7 *320:8 *320:9 1.39999
8 *320:5 *320:8 0.193064
9 *320:7 *320:8 1.39999
10 *320:7 *709:Y 1.39999
11 *320:4 *320:7 0.193064
*END

*D_NET *321 0.00322238

*CONN
*I *711:Y O *C 28.565 39.295 *L 0 *D NOR3X1
*I *706:B I *C 36.105 63.365 *L 0.00167 *D NAND2XL
*I *704:B I *C 32.915 63.365 *L 0.00233 *D XNOR2XL

*CAP
1 *711:Y 1.28215e-05
2 *706:B 3.67992e-05
3 *704:B 1.63999e-05
4 *321:3 0.000273199
5 *321:4 0.000273199
6 *321:5 0.000124548
7 *321:6 0.00014047
8 *321:7 0.000177377
9 *321:8 0.000161459
10 *321:9 5.83025e-05
11 *321:10 5.71331e-05
12 *321:11 0.000306289
13 *321:12 0.000306551055
14 *321:13 0.000214602
15 *321:14 0.000214602
16 *321:15 0.000155921
17 *321:16 0.000155041
18 *321:17 6.53517e-05
19 *321:18 0.000138263
20 *321:21 4.01017e-05
21 *321:22 3.93626e-05
22 *321:23 4.10606e-05
23 *321:24 0.000104958
24 *321:25 4.36801e-05
25 *321:26 3.2449e-05
26 *321:27 3.2449e-05

*RES
1 *711:Y *321:21 0.193351
2 *321:22 *321:21 1.40001
3 *321:22 *321:8 0.124276
4 *321:8 *321:7 1.6157
5 *321:7 *321:6 0.248588
6 *321:6 *321:5 0.870006
7 *321:4 *321:5 0.124276
8 *321:4 *321:3 2.3614285
9 *321:3 *321:12 0.124276
10 *321:12 *321:11 2.3614285
11 *321:14 *321:11 0.124276
12 *321:14 *321:13 1.98856
13 *321:13 *321:10 0.124276
14 *321:27 *706:B 1.40001
15 *321:20 *321:27 0.193062
16 *321:10 *321:9 0.372865
17 *321:15 *321:27 1.40001
18 *321:23 *321:9 1.40001
19 *321:16 *321:15 0.870006
20 *321:23 *321:24 0.124276
21 *321:17 *321:16 0.124276
22 *321:25 *704:B 0.193351
23 *321:24 *321:18 1.11856
24 *321:18 *321:17 0.497141
25 *321:26 *321:25 1.40001
26 *321:26 *321:18 1.40001
27 *321:19 *321:26 0.193062
*END

*D_NET *322 0.00131199

*CONN
*I *710:Y O *C 21.315 34.075 *L 0 *D OAI21X1
*I *703:A1 I *C 17.545 34.945 *L 0.00166 *D OAI21XL
*I *700:A1 I *C 24.795 39.875 *L 0.00169 *D OAI211XL

*CAP
1 *710:Y 2.56617e-05
2 *703:A1 3.68011e-05
3 *700:A1 3.68011e-05
4 *322:3 0.000261328
5 *322:4 0.000261328
6 *322:5 0.0002727
7 *322:6 0.000178991
8 *322:9 3.24485e-05
9 *322:10 4.59597e-05
10 *322:11 3.24485e-05
11 *322:12 0.000127522

*RES
1 *322:3 *700:A1 1.40001
2 *322:4 *322:3 2.1128571
3 *710:Y *322:10 0.386682
4 *322:12 *322:4 1.40001
5 *322:8 *322:11 0.193051
6 *322:11 *322:10 1.40001
7 *322:5 *322:12 1.24287
8 *322:5 *322:11 1.40001
9 *322:6 *322:5 1.86429
10 *322:9 *703:A1 1.40001
11 *322:9 *322:6 1.40001
12 *322:7 *322:9 0.193051
*END

*D_NET *323 0.000602851

*CONN
*I *631:A I *C 34.365 32.335 *L 0.00155 *D DLY2X1
*I *708:Y O *C 30.305 31.755 *L 0 *D NOR2XL

*CAP
1 *631:A 3.68011e-05
2 *708:Y 3.68011e-05
3 *323:2 4.61903e-05
4 *323:3 4.61903e-05
5 *323:4 0.00020221
6 *323:5 0.00020221
7 *323:7 3.24474e-05

*RES
1 *323:3 *708:Y 1.4
2 *323:3 *323:2 0.248564
3 *323:5 *323:2 1.4
4 *323:5 *323:4 1.74000001
5 *323:7 *631:A 1.4
6 *323:7 *323:4 1.4
7 *323:6 *323:7 0.193047
*END

*D_NET *324 0.000471601

*CONN
*I *707:Y O *C 23.345 34.075 *L 0 *D NAND2XL
*I *701:A2 I *C 23.055 32.045 *L 0.00281 *D OAI32X1

*CAP
1 *707:Y 3.67999e-05
2 *701:A2 3.67999e-05
3 *324:2 0.000199
4 *324:3 0.000199

*RES
1 *324:3 *707:Y 1.39999998
2 *324:2 *324:3 0.994287
3 *701:A2 *324:2 1.39999998
*END

*D_NET *325 0.00113161

*CONN
*I *706:Y O *C 36.105 63.945 *L 0 *D NAND2XL
*I *695:AN I *C 38.425 63.365 *L 0.00174 *D NAND2BXL
*I *694:B I *C 39.875 65.975 *L 0.00171 *D NOR2XL
*I *693:A1 I *C 37.555 65.395 *L 0.00163 *D AOI21XL

*CAP
1 *706:Y 3.67994e-05
2 *695:AN 3.67994e-05
3 *694:B 3.67994e-05
4 *693:A1 3.67994e-05
5 *325:4 7.51413e-05
6 *325:5 7.51413e-05
7 *325:6 9.71194e-05
8 *325:7 9.71194e-05
9 *325:8 4.44698e-05
10 *325:9 4.32986e-05
11 *325:10 8.99788e-05
12 *325:11 0.000133019609
13 *325:12 7.68504e-05
14 *325:13 5.68695e-05
15 *325:14 0.000102679
16 *325:15 9.2721e-05

*RES
1 *325:4 *694:B 1.39999998
2 *325:7 *695:AN 1.39999998
3 *325:5 *325:4 0.497144
4 *325:7 *325:6 0.621429
5 *325:10 *325:5 1.39999998
6 *325:11 *325:6 1.39999998
7 *325:11 *325:10 0.621429
8 *325:8 *693:A1 1.39999998
9 *325:12 *325:11 0.497144
10 *325:9 *325:8 0.248572
11 *325:15 *325:12 1.39999998
12 *325:15 *325:9 0.124286
13 *325:14 *325:15 0.497144
14 *325:13 *325:14 0.372858
15 *706:Y *325:13 1.39999998
*END

*D_NET *326 0.000834812

*CONN
*I *705:Y O *C 19.865 40.165 *L 0 *D NAND3XL
*I *702:B I *C 17.255 39.875 *L 0.00167 *D NAND2XL
*I *699:A2 I *C 18.415 42.485 *L 0.00281 *D OAI32X1

*CAP
1 *705:Y 4.26506e-05
2 *702:B 3.68002e-05
3 *699:A2 3.68002e-05
4 *326:3 0.00010182
5 *326:4 0.00010843
6 *326:5 6.97304e-05
7 *326:6 3.96691e-05
8 *326:7 5.67109e-05
9 *326:8 2.54501e-05
10 *326:9 6.29501e-05
11 *326:3 *92:5 0.00010004
12 *326:4 *92:6 0.00010004
13 *326:3 *92:6 1.222e-05
14 *326:4 *92:7 1.222e-05
15 *326:8 *92:6 4.94e-06
16 *326:7 *92:7 4.94e-06
17 *705:Y *92:8 9.7e-06
18 *326:9 *702:A 9.69999849e-06

*RES
1 *326:3 *699:A2 1.39999998
2 *326:9 *705:Y 0.966666
3 *326:4 *326:3 1.11857
4 *326:4 *326:9 1.39999998
5 *326:8 *326:4 0.124286
6 *326:6 *702:B 1.39999998
7 *326:7 *326:8 0.124286
8 *326:5 *326:6 0.248572
9 *326:5 *326:7 0.372858
*END

*D_NET *327 0.000419139

*CONN
*I *704:Y O *C 34.945 63.655 *L 0 *D XNOR2XL
*I *698:B I *C 34.365 65.975 *L 0.00171 *D NOR2XL

*CAP
1 *704:Y 3.68005e-05
2 *698:B 3.68005e-05
3 *327:2 0.00012829
4 *327:3 0.0001138
5 *327:4 4.44801e-05
6 *327:5 5.89701e-05

*RES
1 *327:4 *704:Y 1.39999998
2 *327:3 *698:B 1.39999998
3 *327:4 *327:5 0.248572
4 *327:2 *327:3 0.745715
5 *327:2 *327:5 0.248572
*END

*D_NET *328 0.000386911

*CONN
*I *703:Y O *C 18.415 34.075 *L 0 *D OAI21XL
*I *696:B1 I *C 17.835 32.045 *L 0.00282 *D OAI32X1

*CAP
1 *703:Y 3.68011e-05
2 *696:B1 3.68011e-05
3 *328:2 0.00012209
4 *328:3 0.00013652
5 *328:4 5.46997e-05

*RES
1 *328:4 *703:Y 1.39999998
2 *328:3 *328:4 0.248572
3 *328:2 *328:3 0.994287
4 *696:B1 *328:2 1.39999998
*END

*D_NET *329 0.000517229

*CONN
*I *702:Y O *C 17.255 39.295 *L 0 *D NAND2XL
*I *699:B1 I *C 17.835 42.485 *L 0.00282 *D OAI32X1

*CAP
1 *702:Y 3.68e-05
2 *699:B1 3.68e-05
3 *329:2 0.00017162
4 *329:3 0.00020168
5 *329:4 7.03287e-05

*RES
1 *329:4 *699:B1 1.39999998
2 *329:3 *329:4 0.372858
3 *329:2 *329:3 0.870001
4 *702:Y *329:2 1.39999998
*END

*D_NET *330 0.00108908

*CONN
*I *641:A I *C 16.095 32.045 *L 0.00172 *D CLKBUFX2
*I *701:Y O *C 22.765 31.175 *L 0 *D OAI32X1

*CAP
1 *641:A 3.67987e-05
2 *701:Y 3.67987e-05
3 *330:2 9.36112e-05
4 *330:3 9.36112e-05
5 *330:4 0.00030145
6 *330:5 0.000300539
7 *330:6 8.02303e-05
8 *330:7 8.1141e-05
9 *330:10 3.24518e-05
10 *330:11 3.24518e-05

*RES
1 *330:9 *330:11 0.193051
2 *330:11 *701:Y 1.39999
3 *330:4 *330:11 1.39999
4 *330:5 *330:4 1.49142861
5 *330:5 *330:2 0.124278
6 *330:3 *330:2 0.994293
7 *330:6 *330:3 0.124278
8 *330:7 *330:6 0.372857
9 *330:10 *641:A 1.39999
10 *330:10 *330:7 1.39999
11 *330:8 *330:10 0.193051
*END

*D_NET *331 0.000225221

*CONN
*I *700:Y O *C 25.085 40.455 *L 0 *D OAI211XL
*I *697:A I *C 25.665 42.485 *L 0.00157 *D NAND2XL

*CAP
1 *700:Y 3.68008e-05
2 *697:A 3.68008e-05
3 *331:2 7.581e-05
4 *331:3 7.581e-05

*RES
1 *331:3 *697:A 1.39999998
2 *331:2 *331:3 0.870001
3 *700:Y *331:2 1.39999998
*END

*D_NET *332 0.000334299

*CONN
*I *640:A I *C 16.095 42.485 *L 0.00172 *D CLKBUFX2
*I *699:Y O *C 18.125 41.615 *L 0 *D OAI32X1

*CAP
1 *640:A 3.67997e-05
2 *699:Y 3.67997e-05
3 *332:2 9.79e-05
4 *332:3 9.79e-05
5 *332:6 3.24496e-05
6 *332:7 3.24496e-05

*RES
1 *332:5 *332:7 0.193051
2 *332:7 *699:Y 1.39999998
3 *332:2 *332:7 1.39999998
4 *332:3 *332:2 0.870001
5 *332:6 *640:A 1.39999998
6 *332:6 *332:3 1.39999998
7 *332:4 *332:6 0.193051
*END

*D_NET *333 0.000406881

*CONN
*I *646:A I *C 35.815 65.975 *L 0.00172 *D CLKBUFX2
*I *698:Y O *C 34.075 66.265 *L 0 *D NOR2XL

*CAP
1 *646:A 3.67997e-05
2 *698:Y 3.67997e-05
3 *333:2 3.97902e-05
4 *333:3 0.00011692
5 *333:4 4.97199e-05
6 *333:5 0.000126849795

*RES
1 *333:4 *646:A 1.39999998
2 *333:4 *333:5 0.372858
3 *333:3 *333:5 0.745715
4 *333:2 *333:3 0.248572
5 *698:Y *333:2 1.39999998
*END

*D_NET *334 0.000454019

*CONN
*I *697:Y O *C 25.085 43.065 *L 0 *D NAND2XL
*I *674:D I *C 26.535 45.385 *L 0.0016 *D DFFQX1

*CAP
1 *697:Y 3.67993e-05
2 *674:D 3.67993e-05
3 *334:2 8.6231e-05
4 *334:3 0.00014799
5 *334:4 0.00010398
6 *334:5 4.2219e-05

*RES
1 *334:5 *674:D 1.39999998
2 *334:4 *334:5 0.248572
3 *334:3 *334:4 0.621429
4 *334:2 *334:3 0.745715
5 *697:Y *334:2 1.39999998
*END

*D_NET *335 0.000690399

*CONN
*I *645:A I *C 16.385 26.825 *L 0.00172 *D CLKBUFX2
*I *696:Y O *C 18.125 31.175 *L 0 *D OAI32X1

*CAP
1 *645:A 3.68005e-05
2 *696:Y 3.68005e-05
3 *335:2 5.20601e-05
4 *335:3 0.00011339
5 *335:4 0.00019925
6 *335:5 0.000136719
7 *335:6 5.70888e-05
8 *335:7 5.82898e-05

*RES
1 *335:7 *696:Y 1.39999998
2 *335:6 *335:7 0.372858
3 *335:5 *335:6 0.124286
4 *335:4 *335:5 1.11857
5 *335:3 *335:4 0.621429
6 *335:2 *335:3 0.372858
7 *645:A *335:2 1.39999998
*END

*D_NET *336 0.000648629

*CONN
*I *694:Y O *C 40.165 66.265 *L 0 *D NOR2XL
*I *693:B0 I *C 36.975 65.685 *L 0.00166 *D AOI21XL

*CAP
1 *694:Y 3.89596e-05
2 *693:B0 3.68002e-05
3 *336:2 4.04497e-05
4 *336:3 4.04497e-05
5 *336:4 8.27596289e-05
6 *336:5 8.27596289e-05
7 *336:6 5.95298e-05
8 *336:7 5.86497e-05
9 *336:8 5.78402e-05
10 *336:9 5.87204e-05
11 *336:12 3.24497e-05
12 *336:13 5.92596e-05

*RES
1 *694:Y *336:13 0.580008
2 *336:11 *336:2 0.18284
3 *336:2 *336:13 1.39999998
4 *336:3 *336:2 0.124286
5 *336:6 *336:3 1.39999998
6 *336:7 *336:6 0.372858
7 *336:7 *336:4 0.124286
8 *336:5 *336:4 0.994287
9 *336:8 *336:5 0.124286
10 *336:9 *336:8 0.372858
11 *336:12 *693:B0 1.39999998
12 *336:12 *336:9 1.39999998
13 *336:10 *336:12 0.193051
*END

*D_NET *337 0.00115342

*CONN
*I *695:Y O *C 37.555 63.945 *L 0 *D NAND2BXL
*I *692:AN I *C 34.365 58.435 *L 0.00178 *D NAND2BX1
*I *690:B I *C 35.235 60.755 *L 0.00171 *D NOR2XL
*I *689:A1 I *C 37.555 60.175 *L 0.00163 *D AOI21XL

*CAP
1 *695:Y 3.68009e-05
2 *692:AN 3.68009e-05
3 *690:B 3.68009e-05
4 *689:A1 3.68009e-05
5 *337:4 4.331e-05
6 *337:5 5.78015e-05
7 *337:6 9.04506e-05
8 *337:7 9.16213e-05
9 *337:9 6.13985e-05
10 *337:10 0.00015685
11 *337:11 0.00017397
12 *337:12 0.00015685
13 *337:13 0.00017397

*RES
1 *337:7 *692:AN 1.39999998
2 *337:4 *690:B 1.39999998
3 *337:7 *337:6 0.870001
4 *337:5 *337:4 0.248572
5 *337:6 *337:9 0.124286
6 *337:9 *337:5 0.248572
7 *337:10 *337:9 1.39999998
8 *337:10 *337:12 1.24286
9 *337:13 *695:Y 1.39999998
10 *337:11 *689:A1 1.39999998
11 *337:11 *337:12 1.39999998
12 *337:11 *337:13 1.36714
13 *337:8 *337:11 0.193051
*END

*D_NET *338 0.000521721

*CONN
*I *693:Y O *C 37.155 65.32 *L 0 *D AOI21XL
*I *691:B I *C 38.425 68.585 *L 0.00171 *D NOR2XL

*CAP
1 *693:Y 3.68001e-05
2 *691:B 3.68001e-05
3 *338:2 7.39808e-05
4 *338:3 7.39808e-05
5 *338:4 7.795e-05
6 *338:5 7.795e-05
7 *338:6 7.21301e-05
8 *338:7 7.21301e-05

*RES
1 *338:7 *691:B 1.39999998
2 *338:6 *338:7 0.497144
3 *338:4 *338:6 1.39999998
4 *338:5 *338:4 0.745715
5 *338:2 *338:5 1.39999998
6 *338:3 *338:2 0.497144
7 *693:Y *338:3 1.39999998
*END

*D_NET *339 0.00048368

*CONN
*I *691:Y O *C 38.715 68.295 *L 0 *D NOR2XL
*I *666:D I *C 39.585 71.195 *L 0.00216 *D DFFHQX1

*CAP
1 *691:Y 3.89599e-05
2 *666:D 3.67999e-05
3 *339:2 5.92592e-05
4 *339:3 0.00017433
5 *339:4 0.00017433

*RES
1 *339:4 *666:D 1.39999998
2 *339:3 *339:4 1.24286
3 *339:2 *339:3 1.39999998
4 *691:Y *339:2 0.580008
*END

*D_NET *340 0.00177581

*CONN
*I *692:Y O *C 35.235 59.015 *L 0 *D NAND2BX1
*I *687:B I *C 37.265 50.315 *L 0.00167 *D NAND2XL
*I *686:C I *C 37.265 47.705 *L 0.00278 *D NOR3X1
*I *683:A2 I *C 34.945 48.285 *L 0.00278 *D AOI32X1

*CAP
1 *692:Y 3.68004e-05
2 *687:B 3.68004e-05
3 *686:C 3.68004e-05
4 *683:A2 3.68004e-05
5 *340:4 0.000424336
6 *340:5 0.00051698
7 *340:6 0.000123331
8 *340:7 4.54068e-05
9 *340:8 9.28489e-05
10 *340:9 9.28489e-05
11 *340:10 5.03293e-05
12 *340:11 5.03293e-05
13 *340:13 3.93563e-05
14 *340:14 8.01877e-05
15 *340:15 3.24458e-05
16 *340:16 8.01877e-05

*RES
1 *340:10 *687:B 1.40002
2 *340:11 *340:10 0.372869
3 *340:16 *340:11 1.40002
4 *340:14 *340:16 0.870009
5 *340:13 *340:14 1.40002
6 *340:4 *692:Y 1.40002
7 *340:5 *340:13 0.124272
8 *340:5 *340:4 3.35571432
9 *340:6 *683:A2 1.40002
10 *340:6 *340:5 0.497141
11 *340:7 *340:6 0.248596
12 *340:9 *340:7 1.40002
13 *340:9 *340:8 0.994282
14 *340:15 *686:C 1.40002
15 *340:15 *340:8 1.40002
16 *340:12 *340:15 0.19304
*END

*D_NET *341 0.000512271

*CONN
*I *690:Y O *C 34.945 61.045 *L 0 *D NOR2XL
*I *689:B0 I *C 38.135 60.465 *L 0.00166 *D AOI21XL

*CAP
1 *690:Y 3.68002e-05
2 *689:B0 1.28185e-05
3 *341:2 0.00016488
4 *341:3 0.00016488
5 *341:6 3.01708e-05
6 *341:7 3.01708e-05
7 *341:8 4.0101e-05
8 *341:9 3.24502e-05

*RES
1 *341:8 *689:B0 0.193329
2 *341:9 *341:8 1.39999998
3 *341:5 *341:9 0.193051
4 *341:2 *341:9 1.39999998
5 *341:3 *341:2 1.24286
6 *341:7 *690:Y 1.39999998
7 *341:6 *341:3 1.39999998
8 *341:6 *341:7 0.124286
9 *341:4 *341:6 0.0643219
*END

*D_NET *342 0.000628942

*CONN
*I *689:Y O *C 37.955 60.1 *L 0 *D AOI21XL
*I *688:B I *C 36.105 58.145 *L 0.00171 *D NOR2XL

*CAP
1 *689:Y 3.68007e-05
2 *688:B 3.68007e-05
3 *342:2 3.90301e-05
4 *342:3 3.90301e-05
5 *342:4 0.00012509
6 *342:5 0.00012509
7 *342:7 0.00011355
8 *342:8 0.00011355

*RES
1 *342:8 *689:Y 1.39999998
2 *342:7 *342:8 0.870001
3 *342:4 *342:7 1.39999998
4 *342:5 *342:4 0.994287
5 *342:2 *342:5 1.39999998
6 *342:3 *688:B 1.39999998
7 *342:3 *342:2 0.124286
8 *342:6 *342:3 0.0643219
*END

*D_NET *343 0.000289039

*CONN
*I *688:Y O *C 36.395 57.855 *L 0 *D NOR2XL
*I *667:D I *C 36.395 55.825 *L 0.00164 *D DFFQXL

*CAP
1 *688:Y 3.67992e-05
2 *667:D 3.67992e-05
3 *343:2 0.00010772
4 *343:3 0.00010772

*RES
1 *343:3 *688:Y 1.39999998
2 *343:2 *343:3 0.870001
3 *667:D *343:2 1.39999998
*END

*D_NET *344 0.000450202

*CONN
*I *687:Y O *C 37.265 49.735 *L 0 *D NAND2XL
*I *684:B0 I *C 40.455 50.315 *L 0.00162 *D OAI22XL

*CAP
1 *687:Y 3.68014e-05
2 *684:B0 3.68014e-05
3 *344:2 0.00015585
4 *344:3 0.00015585
5 *344:6 3.24494e-05
6 *344:7 3.24494e-05

*RES
1 *344:7 *684:B0 1.39999
2 *344:5 *344:7 0.193051
3 *344:2 *344:7 1.39999
4 *344:3 *344:2 1.49142861
5 *344:6 *344:3 1.39999
6 *344:6 *687:Y 1.39999
7 *344:4 *344:6 0.193051
*END

*D_NET *345 0.00071067

*CONN
*I *686:Y O *C 37.555 48.285 *L 0 *D NOR3X1
*I *685:A I *C 38.135 50.025 *L 0.00273 *D INVX1
*I *683:B0 I *C 36.395 47.995 *L 0.00266 *D AOI32X1

*CAP
1 *686:Y 1.28198e-05
2 *685:A 3.6801e-05
3 *683:B0 3.6801e-05
4 *345:4 4.02095e-05
5 *345:5 4.0249e-05
6 *345:6 3.15905e-05
7 *345:7 4.12588e-05
8 *345:8 0.000117071
9 *345:9 4.00999e-05
10 *345:10 3.93596e-05
11 *345:11 7.83293e-05
12 *345:12 0.00011775
13 *345:13 7.83293e-05

*RES
1 *345:13 *685:A 1.39999998
2 *345:11 *345:13 0.621429
3 *345:12 *345:11 1.39999998
4 *345:9 *686:Y 0.193329
5 *345:8 *345:12 0.745715
6 *345:10 *345:9 1.39999998
7 *345:7 *345:8 0.124286
8 *345:4 *345:10 0.124286
9 *345:6 *345:7 1.39999998
10 *345:5 *683:B0 1.39999998
11 *345:4 *345:5 0.372858
12 *345:5 *345:6 0.124286
13 *345:3 *345:5 0.0643219
*END

*D_NET *346 0.000323209

*CONN
*I *685:Y O *C 38.5075 50.025 *L 0 *D INVX1
*I *684:A1 I *C 39.585 50.025 *L 0.00171 *D OAI22XL

*CAP
1 *685:Y 3.67995e-05
2 *684:A1 3.67995e-05
3 *346:2 3.93599e-05
4 *346:3 6.01704e-05
5 *346:4 2.83297e-05
6 *346:5 7.634e-05
7 *346:6 4.54103e-05

*RES
1 *346:6 *684:A1 1.39999998
2 *346:5 *346:6 0.248572
3 *346:3 *346:5 0.372858
4 *346:3 *346:4 0.124286
5 *346:2 *346:4 0.124286
6 *685:Y *346:2 1.39999998
*END

*D_NET *347 0.00102226

*CONN
*I *639:A I *C 43.935 55.535 *L 0.00172 *D CLKBUFX2
*I *684:Y O *C 39.875 50.605 *L 0 *D OAI22XL

*CAP
1 *639:A 3.67977e-05
2 *684:Y 3.67977e-05
3 *347:2 0.00018431
4 *347:3 0.00018431
5 *347:4 7.06496e-05
6 *347:5 7.06496e-05
7 *347:6 0.00021937
8 *347:7 0.00021937

*RES
1 *347:2 *639:A 1.4
2 *347:3 *347:2 1.61572
3 *347:7 *347:3 1.4
4 *347:6 *347:7 1.74000001
5 *347:5 *347:6 1.4
6 *347:4 *347:5 0.497154
7 *684:Y *347:4 1.4
*END

*D_NET *348 0.000534301

*CONN
*I *683:Y O *C 35.525 47.705 *L 0 *D AOI32X1
*I *682:A I *C 36.115 50.2525 *L 0.00163 *D INVXL

*CAP
1 *683:Y 3.68001e-05
2 *682:A 2.66208e-05
3 *348:2 0.00021198
4 *348:3 4.69212e-05
5 *348:4 0.00021198

*RES
1 *348:3 *682:A 0.386658
2 *348:4 *348:3 1.39999998
3 *348:2 *348:4 1.11857
4 *683:Y *348:2 1.39999998
*END

*D_NET *349 0.001021

*CONN
*I *644:A I *C 37.845 58.145 *L 0.00172 *D CLKBUFX2
*I *682:Y O *C 36.4775 50.315 *L 0 *D INVXL

*CAP
1 *644:A 3.67994e-05
2 *682:Y 3.67994e-05
3 *349:2 4.84102e-05
4 *349:3 6.40704e-05
5 *349:4 0.000115048
6 *349:5 0.00013149
7 *349:6 4.63304e-05
8 *349:7 7.72601e-05
9 *349:8 5.99318e-05
10 *349:9 6.10989e-05
11 *349:10 0.00017188
12 *349:11 0.00017188

*RES
1 *349:9 *644:A 1.39999
2 *349:8 *349:9 0.372865
3 *349:8 *349:11 0.12428
4 *349:10 *349:11 1.61571431
5 *349:2 *349:10 0.12428
6 *349:3 *349:2 0.24856
7 *349:4 *349:3 0.24856
8 *349:5 *349:4 0.870009
9 *349:7 *349:5 0.372865
10 *349:6 *349:7 0.24856
11 *682:Y *349:6 1.39999
*END

*D_NET *350 0.0014369

*CONN
*I *752:A I *C 77.285 26.825 *L 0.00172 *D CLKBUFX2
*I *885:A I *C 69.165 21.605 *L 0.00157 *D NAND2XL
*I *846:Q O *C 70.325 22.185 *L 0 *D DFFQX1
*I *818:A I *C 70.035 27.115 *L 0.00273 *D NOR4X1

*CAP
1 *752:A 3.68026e-05
2 *885:A 3.68026e-05
3 *846:Q 3.68026e-05
4 *818:A 3.68026e-05
5 *350:4 0.000208458
6 *350:5 0.000254149
7 *350:7 4.16387e-05
8 *350:8 5.60687e-05
9 *350:9 0.00032111
10 *350:10 5.47016e-05
11 *350:11 3.24515e-05
12 *350:12 0.00032111

*RES
1 *350:7 *885:A 1.39999
2 *350:7 *350:8 0.24856
3 *350:10 *846:Q 1.39999
4 *350:8 *350:5 0.24856
5 *350:5 *350:10 0.24856
6 *350:4 *818:A 1.39999
7 *350:5 *350:4 1.98858
8 *350:9 *350:4 1.39999
9 *350:9 *350:12 3.23142862
10 *350:11 *752:A 1.39999
11 *350:11 *350:12 1.39999
12 *350:6 *350:11 0.19304
*END

*D_NET *351 0.00163005

*CONN
*I *897:A I *C 67.425 29.435 *L 0.00157 *D NAND2XL
*I *895:A0 I *C 75.835 29.145 *L 0.00157 *D OA21XL
*I *845:Q O *C 70.325 27.405 *L 0 *D DFFQX1
*I *818:B I *C 69.455 26.825 *L 0.00273 *D NOR4X1

*CAP
1 *897:A 3.68005e-05
2 *895:A0 1.28198e-05
3 *845:Q 3.68005e-05
4 *818:B 3.68005e-05
5 *351:4 0.00017202
6 *351:5 0.00017202
7 *351:6 6.26501e-05
8 *351:7 6.17996e-05
9 *351:8 4.66516e-05
10 *351:9 4.74994e-05
11 *351:11 0.00013969
12 *351:12 7.89688e-05
13 *351:13 0.00013969
14 *351:14 6.07707e-05
15 *351:15 7.89688e-05
16 *351:16 0.000107619
17 *351:17 8.71216e-05
18 *351:18 0.000105629
19 *351:19 4.00999e-05
20 *351:20 0.000105629

*RES
1 *351:19 *895:A0 0.193324
2 *351:20 *351:19 1.39999
3 *351:18 *351:20 0.869992
4 *351:6 *351:18 1.39999
5 *351:7 *351:6 0.372857
6 *351:7 *351:4 0.124278
7 *351:5 *351:4 1.49142861
8 *351:13 *897:A 1.39999
9 *351:8 *351:5 0.124278
10 *351:11 *351:13 1.11857
11 *351:9 *351:8 0.372857
12 *351:12 *351:11 1.39999
13 *351:17 *351:9 1.39999
14 *351:17 *845:Q 1.39999
15 *351:12 *351:15 0.745714
16 *351:16 *351:17 0.497135
17 *351:14 *818:B 1.39999
18 *351:14 *351:15 1.39999
19 *351:14 *351:16 0.248579
20 *351:10 *351:14 0.193051
*END

*D_NET *352 0.00212936

*CONN
*I *750:A I *C 69.455 42.485 *L 0.00172 *D CLKBUFX2
*I *921:B I *C 69.165 34.075 *L 0.00285 *D NAND3X1
*I *881:A I *C 66.555 39.875 *L 0.00157 *D NAND2XL
*I *844:Q O *C 72.065 43.065 *L 0 *D DFFQX1
*I *815:A I *C 63.945 42.775 *L 0.00259 *D NOR3X1

*CAP
1 *750:A 3.67969e-05
2 *921:B 3.67969e-05
3 *881:A 3.67969e-05
4 *844:Q 3.67969e-05
5 *815:A 3.67969e-05
6 *352:5 5.67098e-05
7 *352:6 5.67098e-05
8 *352:7 0.00037243
9 *352:8 0.000350841
10 *352:9 5.3141e-05
11 *352:10 0.000146619
12 *352:11 0.000138362
13 *352:12 0.000141232
14 *352:13 0.000141232
15 *352:14 0.000117409
16 *352:15 0.000154376
17 *352:16 8.6602e-05
18 *352:18 5.78862e-05
19 *352:19 3.93599e-05
20 *352:20 3.24495e-05

*RES
1 *352:12 *815:A 1.40001
2 *352:6 *881:A 1.40001
3 *352:13 *352:12 0.745731
4 *352:6 *352:5 0.497154
5 *352:11 *352:13 1.40001
6 *352:19 *750:A 1.40001
7 *352:10 *352:5 1.40001
8 *352:11 *352:10 1.11857
9 *352:8 *921:B 1.40001
10 *352:9 *352:19 0.124265
11 *352:10 *352:18 0.248577
12 *352:8 *352:7 3.10714293
13 *352:7 *352:9 0.372842
14 *352:18 *352:16 0.248577
15 *352:15 *352:7 1.40001
16 *352:16 *352:15 0.869996
17 *352:15 *352:14 1.24284
18 *352:20 *352:14 1.40001
19 *352:20 *844:Q 1.40001
20 *352:17 *352:20 0.0300113
*END

*D_NET *353 0.00280866

*CONN
*I *921:A I *C 68.875 34.365 *L 0.00264 *D NAND3X1
*I *893:A I *C 68.295 37.265 *L 0.00157 *D NAND2XL
*I *890:A0 I *C 75.835 39.585 *L 0.00157 *D OA21XL
*I *843:Q O *C 70.325 34.075 *L 0 *D DFFQX1
*I *819:B I *C 65.685 32.045 *L 0.00175 *D OR4XL

*CAP
1 *921:A 1.28205e-05
2 *893:A 3.6803e-05
3 *890:A0 3.6803e-05
4 *843:Q 3.6803e-05
5 *819:B 3.6803e-05
6 *353:5 0.000117379
7 *353:6 0.000118289
8 *353:7 0.00019362
9 *353:8 0.00033340918
10 *353:9 0.000172247
11 *353:10 7.62514e-05
12 *353:11 7.53967e-05
13 *353:12 0.00010496
14 *353:13 0.00010496
15 *353:16 3.24481e-05
16 *353:17 0.00023025
17 *353:18 5.31389e-05
18 *353:19 5.40496e-05
19 *353:20 9.39e-05
20 *353:21 4.00997e-05
21 *353:22 0.00023025
22 *353:23 0.00015958
23 *353:24 9.86415e-05
24 *353:25 9.35489e-05
25 *353:26 9.35489e-05
26 *353:12 *405:7 1.982e-05
27 *353:13 *405:5 1.982e-05
28 *353:10 *405:7 8.22e-06
29 *353:11 *405:5 8.22e-06
30 *353:24 *405:7 2.011e-05
31 *353:23 *405:5 2.011e-05
32 *353:23 *405:7 1.437e-05
33 *353:20 *405:5 1.437e-05
34 *353:26 *405:8 2.381e-05
35 *353:25 *405:9 2.38100016e-05

*RES
1 *353:26 *890:A0 1.4
2 *353:21 *921:A 0.193347
3 *353:25 *353:26 1.11857
4 *353:6 *353:21 1.4
5 *353:10 *353:25 1.4
6 *353:6 *353:5 0.87
7 *353:11 *353:10 0.372857
8 *353:18 *353:5 0.124286
9 *353:11 *353:12 0.124286
10 *353:19 *893:A 1.4
11 *353:18 *353:19 0.372857
12 *353:15 *353:19 0.193074
13 *353:13 *353:12 0.994286
14 *353:20 *353:19 1.4
15 *353:24 *353:13 0.124286
16 *353:20 *353:23 0.87
17 *353:23 *353:24 0.994286
18 *353:7 *353:23 1.4
19 *353:8 *353:7 1.36714
20 *353:8 *843:Q 1.4
21 *353:9 *353:8 0.87
22 *353:22 *353:9 1.4
23 *353:17 *353:22 1.98857141
24 *353:16 *819:B 1.4
25 *353:16 *353:17 1.4
26 *353:14 *353:16 0.0969162
*END

*D_NET *354 0.00256707

*CONN
*I *935:A I *C 64.235 37.265 *L 0.00157 *D NAND2XL
*I *886:A I *C 56.405 37.265 *L 0.00157 *D NAND2XL
*I *883:A0 I *C 55.825 39.585 *L 0.00271 *D OAI21X1
*I *842:Q O *C 53.795 34.075 *L 0 *D DFFQX1
*I *819:D I *C 65.105 32.045 *L 0.00161 *D OR4XL

*CAP
1 *935:A 3.67974e-05
2 *886:A 3.67974e-05
3 *883:A0 3.67974e-05
4 *842:Q 3.67974e-05
5 *819:D 3.67974e-05
6 *354:5 5.82698e-05
7 *354:6 5.82698e-05
8 *354:7 6.0331e-05
9 *354:8 7.61483e-05
10 *354:9 5.3479e-05
11 *354:10 3.68104e-05
12 *354:11 0.00021373
13 *354:12 0.00021373
14 *354:13 5.33485e-05
15 *354:14 5.33485e-05
16 *354:15 7.26e-05
17 *354:16 0.000107662
18 *354:17 8.08283e-05
19 *354:18 7.99184e-05
20 *354:19 4.4618e-05
21 *354:20 4.4618e-05
22 *354:21 4.92784e-05
23 *354:22 0.00012572
24 *354:23 0.000109401
25 *354:25 5.82992e-05
26 *354:26 5.82992e-05
27 *354:27 6.6609e-05
28 *354:28 0.00019032
29 *354:29 0.00019032
30 *354:30 3.245e-05
31 *354:11 *40:23 4.579e-05
32 *354:12 *40:22 4.579e-05
33 *354:9 *40:23 1.882e-05
34 *354:10 *40:22 1.882e-05
35 *354:21 *40:23 9.73e-06
36 *354:22 *40:22 9.73e-06
37 *354:22 *40:21 2.299e-05
38 *354:23 *40:20 2.29900047e-05

*RES
1 *354:17 *883:A0 1.39999
2 *354:18 *354:17 0.372869
3 *354:18 *354:13 0.12429
4 *354:14 *354:13 0.248579
5 *354:14 *354:15 0.12429
6 *354:25 *842:Q 1.39999
7 *354:16 *886:A 1.39999
8 *354:16 *354:15 0.497158
9 *354:25 *354:26 0.372869
10 *354:27 *354:16 0.497158
11 *354:23 *354:26 1.39999
12 *354:22 *354:27 1.39999
13 *354:23 *354:22 1.11857
14 *354:22 *354:21 0.372869
15 *354:21 *354:12 0.12429
16 *354:12 *354:11 2.2371428
17 *354:10 *354:11 0.12429
18 *354:5 *935:A 1.39999
19 *354:10 *354:9 0.497158
20 *354:6 *354:5 0.248579
21 *354:9 *354:8 0.248579
22 *354:7 *354:6 1.39999
23 *354:8 *354:7 0.248579
24 *354:29 *354:7 1.39999
25 *354:28 *354:29 1.98856
26 *354:20 *354:28 1.39999
27 *354:20 *354:19 0.372869
28 *354:30 *819:D 1.39999
29 *354:30 *354:19 1.39999
30 *354:24 *354:30 0.193074
*END

*D_NET *355 0.00169862

*CONN
*I *765:A I *C 59.015 37.555 *L 0.00155 *D DLY2X1
*I *841:Q O *C 54.375 39.295 *L 0 *D DFFQX1
*I *815:B I *C 64.235 42.775 *L 0.00272 *D NOR3X1

*CAP
1 *765:A 3.68015e-05
2 *841:Q 3.68015e-05
3 *815:B 3.68015e-05
4 *355:3 0.00015074
5 *355:4 0.00015074
6 *355:5 0.000138889
7 *355:6 0.000138889
8 *355:7 8.2487e-05
9 *355:8 8.33379e-05
10 *355:10 3.24511e-05
11 *355:11 0.000102899
12 *355:12 5.67295e-05
13 *355:13 0.000102899
14 *355:14 0.00028596
15 *355:15 0.000262192

*RES
1 *355:3 *815:B 1.39999
2 *355:6 *765:A 1.39999
3 *355:4 *355:3 0.869992
4 *355:6 *355:5 1.24286
5 *355:15 *355:4 1.39999
6 *355:14 *355:5 1.39999
7 *355:14 *355:15 2.2371428
8 *355:12 *355:14 0.372869
9 *355:12 *355:13 0.12429
10 *355:11 *355:13 1.24286
11 *355:7 *355:11 0.12429
12 *355:8 *355:7 0.372869
13 *355:10 *355:8 1.39999
14 *355:10 *841:Q 1.39999
15 *355:9 *355:10 0.193074
*END

*D_NET *356 0.00180665

*CONN
*I *766:A I *C 64.815 27.115 *L 0.00155 *D DLY2X1
*I *839:Q O *C 66.555 18.415 *L 0 *D DFFQX1
*I *819:A I *C 66.265 32.045 *L 0.00181 *D OR4XL

*CAP
1 *766:A 3.67981e-05
2 *839:Q 3.67981e-05
3 *819:A 3.67981e-05
4 *356:3 0.000291684
5 *356:4 0.00035897
6 *356:5 0.000239478
7 *356:6 3.97888e-05
8 *356:7 0.000102561
9 *356:8 7.83396e-05
10 *356:9 0.000155299
11 *356:5 *357:3 2.014e-05
12 *356:4 *357:4 2.014e-05
13 *356:5 *357:5 9.58e-06
14 *356:4 *357:6 9.58e-06
15 *356:4 *357:3 2.014e-05
16 *356:3 *357:4 2.014e-05
17 *356:4 *357:7 1.092e-05
18 *356:3 *357:8 1.092e-05
19 *356:4 *357:8 2.588e-05
20 *356:3 *357:9 2.58800022e-05
21 *356:5 *32:5 2.512e-05
22 *356:4 *32:6 2.512e-05
23 *356:5 *32:6 9.767e-05
24 *356:4 *32:7 9.767e-05
25 *356:5 *32:8 5.62e-06
26 *356:4 *32:9 5.61999399e-06

*RES
1 *356:6 *819:A 1.39998
2 *356:6 *356:7 0.24859
3 *356:5 *356:7 0.621436
4 *356:8 *839:Q 1.39998
5 *356:4 *766:A 1.39998
6 *356:4 *356:5 2.36141
7 *356:8 *356:9 0.621436
8 *356:3 *356:4 2.6099999
9 *356:3 *356:9 0.745731
*END

*D_NET *357 0.00169478

*CONN
*I *764:A I *C 63.655 23.925 *L 0.00155 *D DLY2X1
*I *838:Q O *C 62.205 18.415 *L 0 *D DFFQX1
*I *819:C I *C 65.395 32.045 *L 0.00167 *D OR4XL

*CAP
1 *764:A 3.68006e-05
2 *838:Q 3.68006e-05
3 *819:C 3.68006e-05
4 *357:3 0.00025529
5 *357:4 0.00022436
6 *357:5 3.46308e-05
7 *357:6 6.55609e-05
8 *357:7 5.59702e-05
9 *357:8 0.000155507
10 *357:9 0.000193329
11 *357:10 0.00013989
12 *357:11 0.00013989
13 *357:12 4.26477e-05
14 *357:13 0.000103978
15 *357:3 *356:5 2.014e-05
16 *357:4 *356:4 2.014e-05
17 *357:5 *356:5 9.58e-06
18 *357:6 *356:4 9.58e-06
19 *357:3 *356:4 2.014e-05
20 *357:4 *356:3 2.014e-05
21 *357:7 *356:4 1.092e-05
22 *357:8 *356:3 1.092e-05
23 *357:8 *356:4 2.588e-05
24 *357:9 *356:3 2.58800022e-05

*RES
1 *357:5 *819:C 1.40002
2 *357:6 *357:5 0.248579
3 *357:6 *357:3 0.372869
4 *357:4 *357:3 2.73428583
5 *357:10 *357:4 1.40002
6 *357:11 *357:10 1.11856
7 *357:7 *357:11 1.40002
8 *357:8 *764:A 1.40002
9 *357:8 *357:7 0.497158
10 *357:9 *357:8 1.49143
11 *357:13 *357:9 0.621448
12 *357:12 *357:13 0.248579
13 *838:Q *357:12 1.40002
*END

*D_NET *358 0.00265955

*CONN
*I *790:A I *C 69.455 32.045 *L 0.00172 *D CLKBUFX2
*I *837:Q O *C 54.665 27.405 *L 0 *D DFFQX1
*I *818:C I *C 68.875 26.825 *L 0.00274 *D NOR4X1

*CAP
1 *790:A 3.67987e-05
2 *837:Q 3.67987e-05
3 *818:C 3.67987e-05
4 *358:3 0.000126216
5 *358:4 0.000141226
6 *358:5 0.00044651
7 *358:6 0.00044651
8 *358:7 6.14628e-05
9 *358:8 6.14628e-05
10 *358:9 0.000155725
11 *358:10 0.000124922
12 *358:11 0.000132968
13 *358:12 0.000132968
14 *358:14 3.24518e-05
15 *358:15 7.82781e-05
16 *358:5 *67:16 3.356e-05
17 *358:6 *67:14 3.356e-05
18 *358:5 *67:18 3.677e-05
19 *358:6 *67:15 3.677e-05
20 *358:5 *67:13 3.751e-05
21 *358:6 *67:12 3.75099952e-05
22 *358:5 *24:6 0.0001459
23 *358:6 *24:7 0.0001459
24 *358:5 *24:12 2.432e-05
25 *358:6 *24:13 2.432e-05
26 *358:5 *24:14 2.616e-05
27 *358:6 *24:15 2.61599916e-05

*RES
1 *358:3 *790:A 1.39997
2 *358:4 *358:3 1.11855
3 *358:10 *818:C 1.39997
4 *358:15 *358:4 0.248537
5 *358:10 *358:9 0.621387
6 *358:9 *358:15 0.497162
7 *358:7 *358:9 1.39997
8 *358:8 *358:7 0.37285
9 *358:11 *358:8 1.39997
10 *358:12 *358:11 0.870011
11 *358:5 *358:12 1.39997
12 *358:6 *358:5 5.71714306
13 *358:14 *358:6 1.39997
14 *358:14 *837:Q 1.39997
15 *358:13 *358:14 0.09692
*END

*D_NET *359 0.00222925

*CONN
*I *792:A I *C 65.685 29.435 *L 0.00172 *D CLKBUFX2
*I *836:Q O *C 58.145 32.625 *L 0 *D DFFQX1
*I *818:D I *C 68.585 26.825 *L 0.00283 *D NOR4X1

*CAP
1 *792:A 3.68033e-05
2 *836:Q 3.68033e-05
3 *818:D 3.68033e-05
4 *359:3 5.31227e-05
5 *359:4 5.31227e-05
6 *359:5 0.00012876
7 *359:6 0.00012876
8 *359:7 6.13588e-05
9 *359:8 6.05128e-05
10 *359:9 5.52841e-05
11 *359:10 6.8869e-05
12 *359:11 0.000276038
13 *359:12 8.38785e-05
14 *359:13 0.00035769
15 *359:14 0.000114607
16 *359:13 *68:4 3.534e-05
17 *359:11 *68:5 3.534e-05
18 *359:13 *68:6 0.00013375
19 *359:11 *68:7 0.00013375
20 *359:13 *68:8 3.6e-05
21 *359:11 *68:9 3.6e-05
22 *359:3 *68:2 9.87e-06
23 *359:4 *68:3 9.86999932e-06
24 *359:5 *449:4 0.00012346
25 *359:6 *449:5 0.000123459994

*RES
1 *359:6 *818:D 1.39999
2 *359:6 *359:5 1.36713
3 *359:7 *359:5 1.39999
4 *359:4 *792:A 1.39999
5 *359:8 *359:7 0.372857
6 *359:4 *359:3 0.372857
7 *359:8 *359:14 0.124301
8 *359:13 *359:3 1.39999
9 *359:13 *359:14 0.870015
10 *359:11 *359:13 2.98285723
11 *359:10 *359:11 1.39999
12 *359:10 *359:12 0.497158
13 *359:9 *359:12 0.248556
14 *836:Q *359:9 1.39999
*END

*D_NET *360 0.00360368

*CONN
*I *791:A I *C 61.625 26.825 *L 0.00172 *D CLKBUFX2
*I *834:Q O *C 53.795 44.515 *L 0 *D DFFQX1
*I *820:A I *C 63.365 47.995 *L 0.00273 *D NOR4X1

*CAP
1 *791:A 3.68067e-05
2 *834:Q 3.68067e-05
3 *820:A 3.68067e-05
4 *360:3 6.06508e-05
5 *360:4 6.06508e-05
6 *360:5 8.24851e-05
7 *360:6 0.00030702
8 *360:7 0.000284759
9 *360:8 0.000285612
10 *360:9 0.000257484
11 *360:10 7.9988e-05
12 *360:11 7.9988e-05
13 *360:14 9.426e-05
14 *360:15 9.426e-05
15 *360:16 3.3802e-05
16 *360:17 0.00066523
17 *360:18 0.000664357
18 *360:19 5.96763e-05
19 *360:20 6.05493e-05
20 *360:21 3.2452e-05
21 *360:18 *80:13 0.00014502
22 *360:17 *80:14 0.000145019993

*RES
1 *360:11 *834:Q 1.39997
2 *360:11 *360:10 0.74575
3 *360:8 *360:10 1.39997
4 *360:8 *360:7 2.23714
5 *360:21 *820:A 1.39997
6 *360:13 *360:21 0.193011
7 *360:7 *360:9 0.12431
8 *360:5 *360:21 1.39997
9 *360:9 *360:6 1.11857
10 *360:6 *360:5 0.74575
11 *360:20 *360:6 1.39997
12 *360:19 *360:20 0.372819
13 *360:15 *360:19 0.12431
14 *360:14 *360:15 0.994259
15 *360:4 *791:A 1.39997
16 *360:14 *360:18 0.12431
17 *360:4 *360:3 0.372819
18 *360:17 *360:18 7.33285713
19 *360:16 *360:3 1.39997
20 *360:16 *360:17 1.39997
21 *360:12 *360:16 0.193011
*END

*D_NET *361 0.00318735

*CONN
*I *797:A I *C 65.975 42.485 *L 0.00178 *D DLY1X1
*I *833:Q O *C 50.895 49.735 *L 0 *D DFFHQX1
*I *820:B I *C 63.945 47.705 *L 0.00273 *D NOR4X1

*CAP
1 *797:A 3.68001e-05
2 *833:Q 3.68001e-05
3 *820:B 3.68001e-05
4 *361:3 0.000377974
5 *361:4 0.000377974
6 *361:5 6.59851e-05
7 *361:6 5.90765e-05
8 *361:7 0.000114492
9 *361:8 0.000114492
10 *361:10 0.00060127
11 *361:11 0.000600417
12 *361:12 4.10939e-05
13 *361:13 0.000345413
14 *361:14 0.000346321
15 *361:15 3.24512e-05

*RES
1 *361:3 *833:Q 1.40002
2 *361:4 *361:3 2.73429
3 *361:10 *361:4 1.40002
4 *361:14 *820:B 1.40002
5 *361:10 *361:11 5.46857166
6 *361:13 *361:14 1.73997
7 *361:11 *361:12 0.124248
8 *361:5 *361:13 0.124248
9 *361:5 *361:12 1.40002
10 *361:6 *361:5 0.497158
11 *361:8 *361:6 1.40002
12 *361:8 *361:7 0.994316
13 *361:15 *797:A 1.40002
14 *361:15 *361:7 1.40002
15 *361:9 *361:15 0.193089
*END

*D_NET *362 0.00405653

*CONN
*I *799:A I *C 52.345 47.705 *L 0.00178 *D DLY1X1
*I *832:Q O *C 61.045 60.175 *L 0 *D DFFQX1
*I *820:C I *C 64.525 47.705 *L 0.00274 *D NOR4X1

*CAP
1 *799:A 3.6801e-05
2 *832:Q 3.6801e-05
3 *820:C 3.6801e-05
4 *362:3 6.11938e-05
5 *362:4 6.11938e-05
6 *362:5 0.000168248
7 *362:6 0.000168248
8 *362:7 7.08738e-05
9 *362:8 7.08738e-05
10 *362:9 0.000616500625
11 *362:10 0.000615654
12 *362:11 8.67626e-05
13 *362:12 8.67626e-05
14 *362:13 5.16267e-05
15 *362:14 5.24827e-05
16 *362:15 0.000210768
17 *362:16 0.000210768
18 *362:17 3.82497e-05
19 *362:18 3.82497e-05
20 *362:19 0.000609774
21 *362:20 0.00060889
22 *362:21 5.90584e-05
23 *362:22 5.99427e-05

*RES
1 *362:17 *832:Q 1.39997
2 *362:18 *362:17 0.248537
3 *362:16 *362:18 1.39997
4 *362:16 *362:15 1.61571
5 *362:22 *362:15 1.39997
6 *362:21 *362:22 0.37285
7 *362:7 *820:C 1.39997
8 *362:20 *362:21 0.124312
9 *362:8 *362:7 0.37285
10 *362:19 *362:20 5.71714306
11 *362:9 *362:8 1.39997
12 *362:9 *362:19 1.39997
13 *362:10 *362:9 2.98288
14 *362:10 *362:11 0.124312
15 *362:12 *362:11 0.497162
16 *362:5 *362:12 0.124312
17 *362:6 *362:5 1.36717
18 *362:6 *362:13 0.124312
19 *362:3 *799:A 1.39997
20 *362:14 *362:13 0.37285
21 *362:4 *362:3 0.37285
22 *362:4 *362:14 1.39997
*END

*D_NET *363 0.00319394

*CONN
*I *798:A I *C 62.785 39.875 *L 0.00184 *D DLY1X4
*I *831:Q O *C 55.535 53.505 *L 0 *D DFFQX1
*I *820:D I *C 64.815 47.705 *L 0.00283 *D NOR4X1

*CAP
1 *798:A 3.6802e-05
2 *831:Q 3.6802e-05
3 *820:D 3.6802e-05
4 *363:3 0.000106807
5 *363:4 0.000106807
6 *363:5 0.000433748
7 *363:6 0.000433748
8 *363:7 0.000494427813
9 *363:8 0.000443269
10 *363:9 9.8697e-05
11 *363:10 9.8697e-05
12 *363:11 8.49735e-05
13 *363:11 *106:6 8.637e-05
14 *363:7 *106:7 8.637e-05
15 *363:7 *106:6 0.00030481
16 *363:8 *106:7 0.000304810002

*RES
1 *363:4 *820:D 1.39999
2 *363:6 *798:A 1.39999
3 *363:4 *363:3 1.11857
4 *363:6 *363:5 4.4742856
5 *363:11 *363:3 1.39999
6 *363:7 *363:5 1.39999
7 *363:7 *363:11 0.869992
8 *363:8 *363:7 3.10714
9 *363:10 *831:Q 1.39999
10 *363:9 *363:8 1.39999
11 *363:9 *363:10 0.745737
*END

*D_NET *364 0.00419923

*CONN
*I *802:A I *C 61.915 16.385 *L 0.00175 *D DLY4X1
*I *830:Q O *C 71.775 44.515 *L 0 *D DFFQX1
*I *821:A I *C 68.295 47.995 *L 0.00162 *D NOR2XL

*CAP
1 *802:A 3.68023e-05
2 *830:Q 3.68023e-05
3 *821:A 5.23257e-05
4 *364:3 5.044e-05
5 *364:4 5.044e-05
6 *364:5 6.09753e-05
7 *364:6 6.09753e-05
8 *364:7 0.00019675
9 *364:8 0.000195862
10 *364:9 0.000144633
11 *364:10 0.000145521
12 *364:11 0.000118245
13 *364:12 4.86312e-05
14 *364:13 0.000103423
15 *364:14 7.26288e-05
16 *364:15 0.000207077
17 *364:16 0.000207077
18 *364:17 0.00071845
19 *364:18 0.000717573
20 *364:20 3.245e-05
21 *364:21 0.000199951
22 *364:22 0.000199074
23 *364:17 *449:8 0.00011118
24 *364:18 *449:9 0.000111179999
25 *364:17 *65:12 7.386e-05
26 *364:18 *65:13 7.386e-05
27 *364:17 *65:16 8.651e-05
28 *364:18 *65:17 8.65100005e-05

*RES
1 *821:A *364:14 0.580067
2 *364:6 *830:Q 1.40005
3 *364:3 *364:14 1.40005
4 *364:6 *364:5 0.372821
5 *364:4 *364:3 0.497141
6 *364:13 *364:5 1.40005
7 *364:11 *364:4 1.40005
8 *364:11 *364:13 1.1186
9 *364:12 *364:11 0.372821
10 *364:17 *364:12 1.40005
11 *364:18 *364:17 9.0728569
12 *364:15 *364:18 0.12432
13 *364:16 *364:15 1.98856
14 *364:16 *364:22 0.12432
15 *364:21 *364:22 1.86424
16 *364:7 *364:21 1.40005
17 *364:8 *364:7 1.49142
18 *364:9 *364:8 0.12432
19 *364:10 *364:9 1.24292
20 *364:20 *802:A 1.40005
21 *364:20 *364:10 1.40005
22 *364:19 *364:20 0.193125
*END

*D_NET *365 0.00592504

*CONN
*I *796:A I *C 49.445 73.805 *L 0.00178 *D DLY1X1
*I *823:Q O *C 72.065 49.735 *L 0 *D DFFQX1
*I *821:B I *C 68.005 47.705 *L 0.00171 *D NOR2XL

*CAP
1 *796:A 3.67946e-05
2 *823:Q 3.67946e-05
3 *821:B 3.67946e-05
4 *365:3 4.21351e-05
5 *365:4 4.21351e-05
6 *365:5 7.29735e-05
7 *365:6 9.44426e-05
8 *365:7 5.39404e-05
9 *365:8 0.000160228
10 *365:9 0.000160228
11 *365:10 0.000216511
12 *365:11 0.000216511
13 *365:12 0.000877167422
14 *365:13 0.000877167422
15 *365:14 0.000840306
16 *365:15 0.000840306
17 *365:17 3.24579e-05
18 *365:14 *42:6 0.00011778
19 *365:15 *42:7 0.00011778
20 *365:12 *125:364 1.459e-05
21 *365:13 *125:362 1.459e-05
22 *365:12 *125:362 1.427e-05
23 *365:13 *125:359 1.427e-05
24 *365:12 *125:358 1.364e-05
25 *365:13 *125:356 1.364e-05
26 *365:12 *125:356 1.459e-05
27 *365:13 *125:355 1.459e-05
28 *365:12 *125:366 2.709e-05
29 *365:13 *125:363 2.709e-05
30 *365:12 *125:291 2.568e-05
31 *365:13 *125:292 2.568e-05
32 *365:12 *125:295 6.44e-05
33 *365:13 *125:296 6.44e-05
34 *365:12 *125:377 2.283e-05
35 *365:13 *125:373 2.283e-05
36 *365:12 *125:373 1.998e-05
37 *365:13 *125:369 1.99799943e-05
38 *365:5 *114:23 0.00011237
39 *365:6 *114:22 0.00011237
40 *365:6 *114:23 6.258e-05
41 *365:7 *114:22 6.25800008e-05
42 *365:5 *121:21 0.00010027
43 *365:6 *121:20 0.00010027
44 *365:6 *121:8 3.398e-05
45 *365:7 *121:9 3.3979999e-05

*RES
1 *365:3 *796:A 1.39994
2 *365:4 *365:3 0.248511
3 *365:13 *365:4 1.39994
4 *365:13 *365:12 9.69428539
5 *365:14 *365:12 1.39994
6 *365:15 *365:14 8.94861
7 *365:8 *365:15 1.39994
8 *365:9 *365:8 1.74002
9 *365:7 *821:B 1.39994
10 *365:5 *365:9 1.39994
11 *365:7 *365:6 0.869936
12 *365:6 *365:5 1.11859
13 *365:11 *365:6 1.39994
14 *365:11 *365:10 1.74002
15 *365:17 *365:10 1.39994
16 *365:17 *823:Q 1.39994
17 *365:16 *365:17 0.19304
*END

*D_NET *366 0.0018974

*CONN
*I *800:A I *C 74.095 60.755 *L 0.00184 *D DLY1X4
*I *828:Q O *C 72.065 58.725 *L 0 *D DFFQX1
*I *814:C I *C 64.815 55.535 *L 0.00272 *D NOR4BX1

*CAP
1 *800:A 3.68036e-05
2 *828:Q 3.68036e-05
3 *814:C 3.68036e-05
4 *366:3 0.000116278
5 *366:4 8.38686e-05
6 *366:5 0.00010244
7 *366:6 0.0003697
8 *366:7 0.000333483
9 *366:9 3.24485e-05
10 *366:10 0.000111319
11 *366:11 0.000111319
12 *366:12 0.00012954
13 *366:13 0.00012954
14 *366:14 8.06531e-05
15 *366:15 7.94797e-05
16 *366:16 5.28812e-05
17 *366:17 5.40489e-05

*RES
1 *366:17 *800:A 1.40002
2 *366:16 *366:17 0.372869
3 *366:13 *366:16 0.12429
4 *366:12 *366:13 1.11856
5 *366:12 *366:15 0.12429
6 *366:14 *366:15 0.372869
7 *366:11 *828:Q 1.40002
8 *366:5 *366:14 1.40002
9 *366:10 *366:11 0.497158
10 *366:6 *366:5 0.869985
11 *366:6 *366:10 1.40002
12 *366:7 *366:6 2.73428583
13 *366:3 *366:7 0.372869
14 *366:4 *366:3 0.372869
15 *366:9 *814:C 1.40002
16 *366:9 *366:4 1.40002
17 *366:8 *366:9 0.193047
*END

*D_NET *367 0.00478476

*CONN
*I *807:A I *C 72.935 31.755 *L 0.00172 *D DLY3X1
*I *827:Q O *C 67.715 60.175 *L 0 *D DFFQX1
*I *817:A I *C 68.005 63.655 *L 0.00273 *D NOR4X1

*CAP
1 *807:A 3.68061e-05
2 *827:Q 3.68061e-05
3 *817:A 3.68061e-05
4 *367:3 0.000119793
5 *367:4 0.000123473
6 *367:5 3.61515e-05
7 *367:6 0.000605187
8 *367:7 0.000605187
9 *367:8 0.00016494
10 *367:9 0.00016494
11 *367:10 0.00085809
12 *367:11 0.000857174
13 *367:12 4.64561e-05
14 *367:13 7.82998e-05
15 *367:14 4.70454e-05
16 *367:15 4.61681e-05
17 *367:16 6.85844e-05
18 *367:17 4.09437e-05
19 *367:18 6.85844e-05
20 *367:19 6.86891e-05
21 *367:20 4.18341e-05
22 *367:21 7.12031e-05
23 *367:22 6.86891e-05
24 *367:18 *125:268 1.568e-05
25 *367:16 *125:259 1.568e-05
26 *367:20 *125:268 1.274e-05
27 *367:17 *125:259 1.274e-05
28 *367:15 *125:268 4.86e-06
29 *367:14 *125:259 4.86e-06
30 *367:15 *125:259 9.41e-06
31 *367:14 *125:260 9.41e-06
32 *367:10 *125:229 6.281e-05
33 *367:11 *125:230 6.281e-05
34 *367:10 *125:230 8.793e-05
35 *367:11 *125:269 8.793e-05
36 *367:6 *125:240 2.06e-05
37 *367:7 *125:241 2.06e-05
38 *367:6 *125:102 2.749e-05
39 *367:7 *125:258 2.749e-05
40 *367:4 *125:254 4.94e-06
41 *367:5 *125:255 4.93999966e-06

*RES
1 *367:21 *807:A 1.40002
2 *367:21 *367:13 0.372869
3 *367:13 *367:12 0.372869
4 *367:9 *367:12 0.124324
5 *367:9 *367:8 1.49147
6 *367:8 *367:11 0.124324
7 *367:11 *367:10 6.71142864
8 *367:22 *367:10 1.40002
9 *367:19 *367:22 0.869958
10 *367:7 *367:19 1.40002
11 *367:7 *367:6 3.85291
12 *367:20 *367:6 1.40002
13 *367:17 *367:20 0.372869
14 *367:17 *367:18 0.124324
15 *367:16 *367:18 0.994282
16 *367:15 *367:16 0.124324
17 *367:3 *817:A 1.40002
18 *367:14 *367:15 0.372869
19 *367:4 *367:3 0.869958
20 *367:4 *827:Q 1.40002
21 *367:5 *367:14 1.40002
22 *367:5 *367:4 0.248545
*END

*D_NET *368 0.00555794

*CONN
*I *804:A I *C 72.935 16.095 *L 0.00172 *D DLY3X1
*I *826:Q O *C 71.775 69.165 *L 0 *D DFFHQX1
*I *817:B I *C 67.425 63.365 *L 0.00273 *D NOR4X1

*CAP
1 *804:A 3.68098e-05
2 *826:Q 3.68098e-05
3 *817:B 3.68098e-05
4 *368:3 0.00033552
5 *368:4 0.000334322
6 *368:5 0.0001802
7 *368:6 0.0001802
8 *368:7 0.00015012
9 *368:8 0.00015012
10 *368:9 6.56918e-05
11 *368:10 6.56918e-05
12 *368:11 0.00167059
13 *368:12 0.00149426
14 *368:13 0.000210153
15 *368:16 3.24508e-05
16 *368:17 7.7112e-05
17 *368:18 3.24508e-05
18 *368:19 7.7112e-05
19 *368:20 8.56772e-05
20 *368:21 8.44791e-05
21 *368:11 *449:8 0.00011069
22 *368:12 *449:9 0.000110689998

*RES
1 *368:20 *804:A 1.39991
2 *368:20 *368:21 0.745714
3 *368:21 *368:10 0.124286
4 *368:10 *368:9 0.497143
5 *368:9 *368:4 0.124286
6 *368:4 *368:3 3.10714
7 *368:15 *368:18 0.0301004
8 *368:18 *826:Q 1.39991
9 *368:5 *368:3 1.39991
10 *368:19 *368:18 1.39991
11 *368:6 *368:5 1.36714
12 *368:17 *368:19 0.621429
13 *368:12 *368:6 1.39991
14 *368:13 *368:17 1.39991
15 *368:12 *368:11 15.9085712
16 *368:11 *368:13 1.86429
17 *368:7 *368:11 1.39991
18 *368:8 *368:7 1.24286
19 *368:16 *817:B 1.39991
20 *368:16 *368:8 1.39991
21 *368:14 *368:16 0.192983
*END

*D_NET *369 0.00385977

*CONN
*I *808:A I *C 58.435 42.195 *L 0.00172 *D DLY3X1
*I *825:Q O *C 69.165 70.615 *L 0 *D DFFQX1
*I *817:C I *C 66.845 63.365 *L 0.00274 *D NOR4X1

*CAP
1 *808:A 3.67945e-05
2 *825:Q 3.67945e-05
3 *817:C 3.67945e-05
4 *369:3 5.93817e-05
5 *369:4 5.93817e-05
6 *369:5 0.000131907
7 *369:6 0.000131907
8 *369:7 0.000108122
9 *369:8 0.000292078
10 *369:9 0.000217766
11 *369:10 0.00054481
12 *369:11 0.000543929
13 *369:12 0.000107333
14 *369:13 0.000108214
15 *369:14 0.00014559
16 *369:15 0.00014559
17 *369:16 0.000394082
18 *369:17 0.000394082
19 *369:21 3.24467e-05
20 *369:22 3.24467e-05
21 *369:23 3.38017e-05
22 *369:10 *371:27 0.00011898
23 *369:11 *371:26 0.00011898
24 *369:8 *371:11 1.427e-05
25 *369:9 *371:12 1.42699953e-05

*RES
1 *369:19 *369:22 0.193051
2 *369:22 *825:Q 1.40001
3 *369:20 *369:23 0.193051
4 *369:23 *369:22 1.40001
5 *369:16 *369:23 1.40001
6 *369:3 *817:C 1.40001
7 *369:17 *369:16 3.48004
8 *369:4 *369:3 0.248568
9 *369:7 *369:17 1.40001
10 *369:8 *369:4 1.40001
11 *369:8 *369:7 0.994271
12 *369:9 *369:8 2.60996
13 *369:10 *369:9 1.40001
14 *369:11 *369:10 6.33857155
15 *369:14 *369:11 0.124284
16 *369:15 *369:14 1.49141
17 *369:15 *369:12 0.124284
18 *369:13 *369:12 0.869987
19 *369:5 *369:13 1.40001
20 *369:6 *369:5 0.994271
21 *369:21 *808:A 1.40001
22 *369:21 *369:6 1.40001
23 *369:18 *369:21 0.193051
*END

*D_NET *370 0.00670142

*CONN
*I *803:A I *C 65.105 16.095 *L 0.00172 *D DLY3X1
*I *824:Q O *C 67.135 74.385 *L 0 *D DFFHQX1
*I *817:D I *C 66.555 63.365 *L 0.00283 *D NOR4X1

*CAP
1 *803:A 3.67979e-05
2 *824:Q 3.67979e-05
3 *817:D 3.67979e-05
4 *370:3 5.00338e-05
5 *370:4 5.00338e-05
6 *370:5 4.44768e-05
7 *370:6 4.44768e-05
8 *370:7 0.00038954
9 *370:8 0.00066215
10 *370:9 0.000305538
11 *370:10 0.000164974
12 *370:11 0.000164974
13 *370:12 0.000571277
14 *370:13 0.000572146
15 *370:14 6.03094e-05
16 *370:15 6.03094e-05
17 *370:16 0.000393804
18 *370:17 0.000393804
19 *370:21 3.24533e-05
20 *370:22 8.75188e-05
21 *370:23 8.75188e-05
22 *370:24 3.24533e-05
23 *370:25 3.37971e-05
24 *370:16 *448:6 4.909e-05
25 *370:17 *448:7 4.909e-05
26 *370:16 *448:8 0.00054213
27 *370:17 *448:9 0.00054213
28 *370:10 *448:8 8.215e-05
29 *370:11 *448:9 8.215e-05
30 *370:14 *448:10 1.355e-05
31 *370:15 *448:11 1.35500593e-05
32 *370:16 *114:19 0.00022671
33 *370:17 *114:20 0.000226709994
34 *370:7 *115:23 2.449e-05
35 *370:8 *115:21 2.449e-05
36 *370:8 *115:23 1.984e-05
37 *370:9 *115:21 1.984e-05
38 *370:8 *115:14 5.184e-05
39 *370:9 *115:15 5.184e-05
40 *370:10 *115:14 5.146e-05
41 *370:11 *115:15 5.146e-05
42 *370:12 *115:20 0.00011114
43 *370:13 *115:19 0.00011114
44 *370:14 *115:20 2.232e-05
45 *370:15 *115:19 2.23200031e-05

*RES
1 *370:5 *824:Q 1.39998
2 *370:6 *370:5 0.248558
3 *370:3 *370:6 1.39998
4 *370:24 *817:D 1.39998
5 *370:19 *370:24 0.193068
6 *370:4 *370:3 0.248558
7 *370:25 *370:24 1.39998
8 *370:20 *370:25 0.193068
9 *370:7 *370:4 1.39998
10 *370:8 *370:25 1.39998
11 *370:8 *370:7 3.97714
12 *370:9 *370:8 3.60425
13 *370:10 *370:9 0.124331
14 *370:11 *370:10 2.48569
15 *370:11 *370:16 0.124331
16 *370:17 *370:16 6.83571434
17 *370:14 *370:17 0.124331
18 *370:15 *370:14 0.994337
19 *370:15 *370:12 0.124331
20 *370:13 *370:12 6.3386
21 *370:23 *370:13 1.39998
22 *370:22 *370:23 0.621448
23 *370:21 *803:A 1.39998
24 *370:21 *370:22 1.39998
25 *370:18 *370:21 0.193068
*END

*D_NET *371 0.00561582

*CONN
*I *805:A I *C 36.685 45.385 *L 0.00172 *D DLY3X1
*I *829:Q O *C 61.045 70.615 *L 0 *D DFFQX1
*I *813:AN I *C 63.365 63.365 *L 0.0018 *D NAND4BXL

*CAP
1 *805:A 3.68059e-05
2 *829:Q 3.68059e-05
3 *813:AN 3.68059e-05
4 *371:3 0.000178812
5 *371:4 0.000178812
6 *371:5 0.000350707
7 *371:6 0.000350707
8 *371:7 0.000266479
9 *371:8 0.000266648
10 *371:9 0.00045413
11 *371:10 0.000453286
12 *371:11 7.7622e-05
13 *371:12 7.7622e-05
14 *371:13 7.15353e-05
15 *371:14 7.15353e-05
16 *371:15 8.24758e-05
17 *371:16 8.31507e-05
18 *371:17 5.8687e-05
19 *371:18 5.8687e-05
20 *371:19 0.000120073
21 *371:20 0.000120073
22 *371:21 5.90504e-05
23 *371:22 5.99329e-05
24 *371:25 3.24453e-05
25 *371:26 0.000551816
26 *371:27 0.00085052
27 *371:28 0.000331629
28 *371:29 3.24453e-05
29 *371:27 *369:10 0.00011898
30 *371:26 *369:11 0.00011898
31 *371:11 *369:8 1.427e-05
32 *371:12 *369:9 1.42699953e-05

*RES
1 *371:13 *829:Q 1.40001
2 *371:14 *371:13 0.372851
3 *371:29 *813:AN 1.40001
4 *371:24 *371:29 0.193051
5 *371:18 *371:14 1.40001
6 *371:11 *371:29 1.40001
7 *371:18 *371:17 0.372851
8 *371:12 *371:11 0.621419
9 *371:28 *371:17 1.40001
10 *371:27 *371:12 1.40001
11 *371:27 *371:28 3.23148
12 *371:26 *371:27 6.33857155
13 *371:26 *371:19 0.124284
14 *371:20 *371:19 0.994271
15 *371:21 *371:20 0.124284
16 *371:22 *371:21 0.372851
17 *371:9 *371:22 1.40001
18 *371:10 *371:9 3.35576
19 *371:10 *371:7 0.124284
20 *371:8 *371:7 2.36139
21 *371:3 *371:8 0.124284
22 *371:4 *371:3 1.49141
23 *371:5 *371:4 0.124284
24 *371:6 *371:5 2.85853
25 *371:6 *371:15 0.124284
26 *371:16 *371:15 0.745703
27 *371:25 *805:A 1.40001
28 *371:25 *371:16 1.40001
29 *371:23 *371:25 0.193051
*END

*D_NET *372 0.00159119

*CONN
*I *762:A I *C 64.235 65.975 *L 0.00175 *D DLY4X1
*I *848:Q O *C 57.855 74.385 *L 0 *D DFFQX1

*CAP
1 *762:A 1.28184e-05
2 *848:Q 3.68007e-05
3 *372:2 0.00025816
4 *372:3 0.00025699
5 *372:4 7.12574e-05
6 *372:5 7.24313e-05
7 *372:6 0.000172359
8 *372:7 0.000172359
9 *372:8 8.15389e-05
10 *372:9 8.06605e-05
11 *372:10 8.31186e-05
12 *372:11 8.4001e-05
13 *372:12 6.41589e-05
14 *372:13 6.53288e-05
15 *372:14 4.01018e-05
16 *372:15 3.91012e-05

*RES
1 *372:14 *762:A 0.193339
2 *372:15 *372:14 1.4
3 *372:3 *372:15 0.124282
4 *372:3 *372:2 1.74000001
5 *372:8 *372:2 1.4
6 *372:9 *372:8 0.372846
7 *372:9 *372:6 0.124282
8 *372:7 *372:6 1.61572
9 *372:10 *372:7 0.124282
10 *372:11 *372:10 0.372846
11 *372:5 *372:11 1.4
12 *372:5 *372:4 0.745718
13 *372:13 *848:Q 1.4
14 *372:12 *372:4 0.124282
15 *372:12 *372:13 0.497154
*END

*D_NET *373 0.00527092

*CONN
*I *801:A I *C 47.125 16.095 *L 0.00172 *D DLY3X1
*I *847:Q O *C 55.245 63.945 *L 0 *D DFFQX1

*CAP
1 *801:A 3.68021e-05
2 *847:Q 3.68021e-05
3 *373:2 0.000309445
4 *373:3 0.000309445
5 *373:4 0.000211273
6 *373:5 0.000211273
7 *373:8 3.24558e-05
8 *373:9 0.00092478
9 *373:10 0.000923905
10 *373:11 0.000662734
11 *373:12 4.10637e-05
12 *373:13 0.000663609
13 *373:14 9.62387e-05
14 *373:15 3.24558e-05
15 *373:16 9.71135e-05
16 *373:4 *31:18 3.518e-05
17 *373:5 *31:19 3.518e-05
18 *373:13 *31:18 0.00016371
19 *373:11 *31:19 0.00016371
20 *373:10 *31:18 9.209e-05
21 *373:9 *31:19 9.209e-05
22 *373:16 *31:14 4.977e-05
23 *373:14 *31:15 4.97699896e-05

*RES
1 *373:7 *373:15 0.193134
2 *373:15 *847:Q 1.40003
3 *373:16 *373:15 1.40003
4 *373:14 *373:16 1.24286
5 *373:12 *373:14 0.124255
6 *373:13 *373:12 1.40003
7 *373:11 *373:13 7.83006
8 *373:11 *373:4 0.124255
9 *373:5 *373:4 2.1128
10 *373:10 *373:5 0.124255
11 *373:9 *373:10 9.94285679
12 *373:2 *373:9 1.40003
13 *373:3 *373:2 2.2372
14 *373:8 *801:A 1.40003
15 *373:8 *373:3 1.40003
16 *373:6 *373:8 0.193134
*END

*D_NET *374 0.000598592

*CONN
*I *809:A I *C 55.825 55.825 *L 0.00172 *D DLY3X1
*I *840:Q O *C 56.695 60.175 *L 0 *D DFFQX1

*CAP
1 *809:A 3.68006e-05
2 *840:Q 3.68006e-05
3 *374:2 0.000212209
4 *374:3 0.00024236
5 *374:4 7.04207e-05

*RES
1 *374:4 *840:Q 1.40001
2 *374:3 *374:4 0.372851
3 *374:2 *374:3 1.86428571
4 *809:A *374:2 1.40001
*END

*D_NET *375 0.00325404

*CONN
*I *806:A I *C 51.185 47.705 *L 0.00175 *D DLY4X1
*I *835:Q O *C 59.015 58.725 *L 0 *D DFFQX1
*I *814:B I *C 65.395 55.535 *L 0.00267 *D NOR4BX1

*CAP
1 *806:A 3.68053e-05
2 *835:Q 3.68053e-05
3 *814:B 3.68053e-05
4 *375:3 0.00011223
5 *375:4 0.000111056
6 *375:5 0.000110007
7 *375:6 0.000110007
8 *375:7 0.000369458
9 *375:8 0.000370633
10 *375:9 0.000341776
11 *375:10 0.00068719
12 *375:12 0.000153324
13 *375:13 0.000152454
14 *375:14 0.00037834
15 *375:15 3.24537e-05
16 *375:7 *46:8 6.505e-05
17 *375:8 *46:9 6.505e-05
18 *375:7 *46:8 4.23e-05
19 *375:8 *46:9 4.23000006e-05

*RES
1 *375:8 *806:A 1.39999
2 *375:8 *375:7 3.23142862
3 *375:7 *375:4 0.124305
4 *375:4 *375:3 0.869985
5 *375:12 *375:3 1.39999
6 *375:6 *814:B 1.39999
7 *375:12 *375:13 1.24285
8 *375:6 *375:5 0.869985
9 *375:13 *375:14 0.124305
10 *375:9 *375:5 1.39999
11 *375:14 *375:10 1.98858
12 *375:10 *375:9 2.73431
13 *375:15 *375:10 1.39999
14 *375:15 *835:Q 1.39999
15 *375:11 *375:15 0.19304
*END

*D_NET *376 0.000621898

*CONN
*I *941:A0 I *C 65.975 34.365 *L 0.00164 *D AOI211XL
*I *939:Y O *C 64.1525 32.045 *L 0 *D INVXL
*I *904:A I *C 66.265 34.365 *L 0.00162 *D NOR2XL

*CAP
1 *941:A0 4.01005e-05
2 *939:Y 3.67996e-05
3 *904:A 1.28212e-05
4 *376:3 0.000142941
5 *376:4 0.00022164
6 *376:5 0.000123149
7 *376:6 4.44498e-05

*RES
1 *941:A0 *904:A 0.193329
2 *376:6 *941:A0 1.39999998
3 *376:5 *376:6 0.248572
4 *376:4 *376:5 0.745715
5 *376:3 *376:4 0.745715
6 *939:Y *376:3 1.39999998
*END

*D_NET *377 0.00454103

*CONN
*I *772:A I *C 51.475 68.585 *L 0.00172 *D CLKBUFX2
*I *938:Y O *C 71.5675 58.435 *L 0 *D CLKINVX1
*I *899:A I *C 70.905 55.245 *L 0.00162 *D NOR2XL

*CAP
1 *772:A 3.68026e-05
2 *938:Y 3.68026e-05
3 *899:A 3.68026e-05
4 *377:3 0.00036945
5 *377:4 0.000370619
6 *377:5 6.59151e-05
7 *377:6 5.14278e-05
8 *377:7 0.0004759
9 *377:8 0.000475021
10 *377:9 0.000370031
11 *377:10 0.000370031
12 *377:11 0.00015217
13 *377:12 0.000153049
14 *377:13 3.90974e-05
15 *377:14 0.000289628
16 *377:15 0.000275141
17 *377:9 *119:18 0.00013383
18 *377:10 *119:19 0.000133829994
19 *377:3 *35:2 0.00034807
20 *377:4 *35:3 0.00034807
21 *377:3 *35:16 4.67e-06
22 *377:4 *35:15 4.6700076e-06

*RES
1 *377:6 *899:A 1.39999
2 *377:6 *377:5 0.248579
3 *377:5 *377:14 0.248579
4 *377:14 *377:15 1.11857
5 *377:15 *938:Y 1.39999
6 *377:7 *377:15 1.39999
7 *377:8 *377:7 4.4742856
8 *377:9 *377:8 0.124255
9 *377:10 *377:9 2.7343
10 *377:13 *772:A 1.39999
11 *377:10 *377:11 0.124255
12 *377:3 *377:13 0.124255
13 *377:12 *377:11 1.49141
14 *377:4 *377:3 4.35003
15 *377:4 *377:12 1.39999
*END

*D_NET *378 0.00116233

*CONN
*I *937:Y O *C 64.235 53.505 *L 0 *D NAND2XL
*I *928:A I *C 65.395 50.025 *L 0.00162 *D NOR2XL
*I *912:B I *C 58.435 50.315 *L 0.00538 *D NOR2BX2

*CAP
1 *937:Y 3.67998e-05
2 *928:A 3.67998e-05
3 *912:B 3.67998e-05
4 *378:3 3.41194e-05
5 *378:4 0.000197370684
6 *378:5 0.00019706
7 *378:6 4.91597e-05
8 *378:7 4.91597e-05
9 *378:8 7.32984e-05
10 *378:9 7.32984e-05
11 *378:10 8.56704e-05
12 *378:11 8.56704e-05
13 *378:3 *106:6 1.397e-05
14 *378:4 *106:7 1.397e-05
15 *378:4 *106:6 8.959e-05
16 *378:5 *106:7 8.95899996e-05

*RES
1 *378:10 *928:A 1.39998
2 *378:10 *378:11 0.497141
3 *378:9 *937:Y 1.39998
4 *378:3 *378:11 1.39998
5 *378:8 *378:9 0.621436
6 *378:4 *378:3 0.372846
7 *378:4 *378:8 1.39998
8 *378:5 *378:4 2.6099999
9 *378:7 *378:5 1.39998
10 *378:6 *378:7 0.24859
11 *912:B *378:6 1.39998
*END

*D_NET *379 0.00143762

*CONN
*I *936:Y O *C 59.305 63.945 *L 0 *D AND2X1
*I *933:B0 I *C 58.435 61.045 *L 0.00276 *D AOI2BB1X1
*I *930:C I *C 59.305 68.875 *L 0.00285 *D NAND3X1
*I *927:B I *C 60.465 68.585 *L 0.00167 *D NAND2XL
*I *925:A1 I *C 57.565 68.585 *L 0.00162 *D OA21XL

*CAP
1 *936:Y 3.68004e-05
2 *933:B0 3.68004e-05
3 *930:C 3.68004e-05
4 *927:B 3.68004e-05
5 *925:A1 3.68004e-05
6 *379:5 0.000113762
7 *379:6 9.81002e-05
8 *379:7 6.51277e-05
9 *379:8 3.49785e-05
10 *379:9 3.91009e-05
11 *379:10 6.03206e-05
12 *379:11 6.03206e-05
13 *379:12 6.155e-05
14 *379:13 0.000184271
15 *379:14 0.00024122
16 *379:15 9.14012e-05
17 *379:16 3.55085e-05
18 *379:17 0.000106879
19 *379:18 6.10715e-05

*RES
1 *379:9 *933:B0 1.39999
2 *379:9 *379:6 0.12428
3 *379:6 *379:5 0.745705
4 *379:5 *379:12 0.24856
5 *379:18 *927:B 1.39999
6 *379:12 *379:13 0.497145
7 *379:13 *936:Y 1.39999
8 *379:17 *379:18 0.372865
9 *379:13 *379:14 1.61571431
10 *379:14 *379:17 0.497145
11 *379:16 *930:C 1.39999
12 *379:14 *379:15 0.24856
13 *379:15 *379:16 0.24856
14 *379:11 *379:15 0.372865
15 *379:8 *925:A1 1.39999
16 *379:10 *379:11 0.12428
17 *379:7 *379:8 0.24856
18 *379:7 *379:10 0.372865
*END

*D_NET *380 0.00102806

*CONN
*I *935:Y O *C 63.655 37.845 *L 0 *D NAND2XL
*I *926:A I *C 67.425 34.365 *L 0.00162 *D NOR2XL
*I *901:B I *C 66.845 37.555 *L 0.0028 *D NOR2BX1

*CAP
1 *935:Y 3.67993e-05
2 *926:A 3.67993e-05
3 *901:B 3.67993e-05
4 *380:3 8.68816e-05
5 *380:4 8.68816e-05
6 *380:5 0.00020756
7 *380:6 0.000183661
8 *380:8 3.24507e-05
9 *380:9 3.93615e-05
10 *380:10 4.10908e-05
11 *380:11 3.93615e-05
12 *380:12 4.22816e-05
13 *380:5 *383:9 1.626e-05
14 *380:6 *383:10 1.626e-05
15 *380:3 *383:7 6.281e-05
16 *380:4 *383:8 6.28099959e-05

*RES
1 *380:4 *926:A 1.39999998
2 *380:11 *901:B 1.39999998
3 *380:4 *380:3 1.11857
4 *380:9 *380:11 0.124286
5 *380:12 *380:3 1.39999998
6 *380:10 *380:9 1.39999998
7 *380:5 *380:12 0.372858
8 *380:5 *380:10 0.124286
9 *380:6 *380:5 1.36714
10 *380:8 *380:6 1.39999998
11 *380:8 *935:Y 1.39999998
12 *380:7 *380:8 0.193051
*END

*D_NET *381 0.00041367

*CONN
*I *934:Y O *C 66.265 65.395 *L 0 *D NAND2XL
*I *924:C I *C 67.425 68.295 *L 0.00276 *D NOR4BBX1
*I *923:A I *C 68.005 65.685 *L 0.00162 *D NOR2XL

*CAP
1 *934:Y 3.91995e-05
2 *924:C 3.68008e-05
3 *923:A 2.56614e-05
4 *381:3 6.86705e-05
5 *381:4 0.000121669824
6 *381:5 0.000121669824

*RES
1 *381:5 *924:C 1.39999998
2 *381:4 *381:5 1.11857
3 *381:3 *381:4 1.39999998
4 *381:3 *923:A 0.386658
5 *934:Y *381:3 0.580008
*END

*D_NET *382 0.000797669

*CONN
*I *932:Y O *C 67.135 53.505 *L 0 *D NAND4XL
*I *928:B I *C 65.685 50.315 *L 0.00171 *D NOR2XL
*I *919:B I *C 65.105 53.215 *L 0.00175 *D NOR2BXL

*CAP
1 *932:Y 3.67994e-05
2 *928:B 3.67994e-05
3 *919:B 3.67994e-05
4 *382:3 0.000118009961
5 *382:4 9.51895e-05
6 *382:5 8.53594e-05
7 *382:6 8.53594e-05
8 *382:7 6.38408e-05
9 *382:8 7.88498e-05
10 *382:9 8.033e-05
11 *382:10 8.033e-05

*RES
1 *382:5 *932:Y 1.39999998
2 *382:6 *382:5 0.621429
3 *382:10 *382:6 1.39999998
4 *382:4 *928:B 1.39999998
5 *382:9 *382:10 0.621429
6 *382:7 *919:B 1.39999998
7 *382:4 *382:3 0.745715
8 *382:3 *382:9 1.39999998
9 *382:8 *382:7 0.372858
10 *382:8 *382:3 0.248572
*END

*D_NET *383 0.00164964

*CONN
*I *931:Y O *C 63.075 28.855 *L 0 *D NAND4XL
*I *926:B I *C 67.715 34.655 *L 0.00171 *D NOR2XL
*I *907:A I *C 64.525 37.555 *L 0.00162 *D NOR2XL

*CAP
1 *931:Y 3.68007e-05
2 *926:B 3.68007e-05
3 *907:A 3.68007e-05
4 *383:3 0.0003776
5 *383:4 0.000330751
6 *383:5 0.000109837
7 *383:6 0.000108933
8 *383:7 4.72238e-05
9 *383:8 4.72238e-05
10 *383:9 0.000132758
11 *383:10 0.000132758
12 *383:11 9.40212e-05
13 *383:9 *380:5 1.626e-05
14 *383:10 *380:6 1.626e-05
15 *383:7 *380:3 6.281e-05
16 *383:8 *380:4 6.28099959e-05

*RES
1 *383:8 *926:B 1.40001
2 *383:8 *383:7 0.621419
3 *383:9 *383:7 1.40001
4 *383:5 *907:A 1.40001
5 *383:10 *383:9 1.49142
6 *383:6 *383:5 0.621419
7 *383:11 *383:10 1.40001
8 *383:11 *383:6 0.124265
9 *383:3 *383:11 0.497154
10 *383:4 *383:3 3.10714293
11 *931:Y *383:4 1.40001
*END

*D_NET *384 0.00136695

*CONN
*I *929:Y O *C 65.0225 65.685 *L 0 *D CLKINVX1
*I *922:B I *C 61.915 63.365 *L 0.00167 *D NAND2XL
*I *920:A1 I *C 62.785 68.585 *L 0.00162 *D OA21XL

*CAP
1 *929:Y 3.68012e-05
2 *922:B 3.68012e-05
3 *920:A1 3.68012e-05
4 *384:3 0.000131999
5 *384:4 0.000131999
6 *384:5 0.000231252
7 *384:6 0.00039203
8 *384:7 0.000223392
9 *384:9 7.17899e-05
10 *384:10 4.16407e-05
11 *384:11 3.24523e-05

*RES
1 *384:10 *922:B 1.39999998
2 *384:9 *384:10 0.248572
3 *384:9 *384:7 0.372858
4 *384:5 *920:A1 1.39999998
5 *384:7 *384:6 1.24286
6 *384:6 *384:5 1.24286
7 *384:4 *384:6 1.39999998
8 *384:4 *384:3 0.994287
9 *384:11 *384:3 1.39999998
10 *384:11 *929:Y 1.39999998
11 *384:8 *384:11 0.193051
*END

*D_NET *385 0.00175797

*CONN
*I *930:Y O *C 59.595 68.295 *L 0 *D NAND3X1
*I *929:A I *C 65.395 65.685 *L 0.00273 *D CLKINVX1
*I *924:D I *C 68.005 68.585 *L 0.00276 *D NOR4BBX1
*I *923:B I *C 68.295 65.975 *L 0.00171 *D NOR2XL

*CAP
1 *930:Y 3.67963e-05
2 *929:A 3.67963e-05
3 *924:D 3.67963e-05
4 *923:B 3.67963e-05
5 *385:4 7.58608e-05
6 *385:5 7.46878e-05
7 *385:6 7.09615e-05
8 *385:7 7.2128e-05
9 *385:10 3.24479e-05
10 *385:11 0.00031505
11 *385:12 0.00020074
12 *385:13 0.00020074
13 *385:14 0.0004247
14 *385:15 0.000143459

*RES
1 *385:7 *923:B 1.4
2 *385:7 *385:6 0.497135
3 *385:5 *385:6 0.124293
4 *385:12 *929:A 1.4
5 *385:4 *924:D 1.4
6 *385:5 *385:4 0.497135
7 *385:9 *385:4 0.193059
8 *385:12 *385:13 1.11856
9 *385:15 *385:4 1.4
10 *385:14 *385:13 1.4
11 *385:14 *385:15 1.11856
12 *385:11 *385:14 2.4857142
13 *385:10 *385:11 1.4
14 *385:10 *930:Y 1.4
15 *385:8 *385:10 0.0300018
*END

*D_NET *386 0.000919859

*CONN
*I *928:Y O *C 65.975 50.605 *L 0 *D NOR2XL
*I *916:C I *C 65.395 44.805 *L 0.00164 *D NAND4XL

*CAP
1 *928:Y 3.67979e-05
2 *916:C 3.67979e-05
3 *386:2 0.000232992
4 *386:3 0.000248
5 *386:4 0.000190139
6 *386:5 0.000175131

*RES
1 *386:5 *928:Y 1.39999
2 *386:4 *386:5 0.870009
3 *386:3 *386:4 0.24856
4 *386:2 *386:3 1.61571431
5 *916:C *386:2 1.39999
*END

*D_NET *387 0.00101012

*CONN
*I *927:Y O *C 60.465 69.165 *L 0 *D NAND2XL
*I *925:B0 I *C 56.985 69.165 *L 0.0017 *D OA21XL
*I *911:B I *C 59.885 71.195 *L 0.00167 *D NAND2XL
*I *910:A1 I *C 57.565 71.195 *L 0.00274 *D OAI21X1

*CAP
1 *927:Y 3.67992e-05
2 *925:B0 3.67992e-05
3 *911:B 3.67992e-05
4 *910:A1 3.67992e-05
5 *387:4 8.34593e-05
6 *387:5 6.89706e-05
7 *387:6 5.69787e-05
8 *387:7 7.147e-05
9 *387:9 5.33112e-05
10 *387:10 0.00017242
11 *387:11 5.21404e-05
12 *387:12 6.52899e-05
13 *387:13 6.64607e-05
14 *387:14 0.00017242

*RES
1 *387:13 *910:A1 1.39999
2 *387:12 *387:13 0.497135
3 *387:11 *387:12 0.124278
4 *387:9 *925:B0 1.39999
5 *387:9 *387:11 0.372857
6 *387:6 *911:B 1.39999
7 *387:10 *387:9 1.39999
8 *387:7 *387:6 0.372857
9 *387:10 *387:14 1.49142861
10 *387:7 *387:4 0.248579
11 *387:5 *387:14 1.39999
12 *387:5 *387:4 0.497135
13 *387:5 *927:Y 1.39999
14 *387:8 *387:5 0.0299942
*END

*D_NET *388 0.000503402

*CONN
*I *926:Y O *C 68.005 34.945 *L 0 *D NOR2XL
*I *921:C I *C 69.455 34.365 *L 0.00285 *D NAND3X1

*CAP
1 *926:Y 3.6801e-05
2 *921:C 3.6801e-05
3 *388:2 0.000134251
4 *388:3 7.14793e-05
5 *388:4 0.000143420352
6 *388:5 8.06511e-05

*RES
1 *388:5 *921:C 1.39999998
2 *388:4 *388:5 0.372858
3 *388:3 *926:Y 1.39999998
4 *388:2 *388:4 0.621429
5 *388:2 *388:3 0.621429
*END

*D_NET *389 0.00316369

*CONN
*I *924:Y O *C 68.005 67.715 *L 0 *D NOR4BBX1
*I *919:AN I *C 65.685 52.925 *L 0.00174 *D NOR2BXL
*I *917:B I *C 67.715 55.535 *L 0.00167 *D NAND2XL
*I *916:D I *C 65.685 44.805 *L 0.00166 *D NAND4XL
*I *914:A1 I *C 67.715 58.145 *L 0.00162 *D OA21XL

*CAP
1 *924:Y 3.68e-05
2 *919:AN 3.68e-05
3 *917:B 3.68e-05
4 *916:D 3.68e-05
5 *914:A1 3.68e-05
6 *389:5 0.000267229
7 *389:6 0.000266064
8 *389:7 0.00051598
9 *389:8 0.00050084
10 *389:9 9.81413e-05
11 *389:10 8.31268e-05
12 *389:11 0.000185457
13 *389:12 0.000201125
14 *389:13 5.47592e-05
15 *389:14 7.15609e-05
16 *389:15 0.000118541
17 *389:16 0.000104149
18 *389:17 0.000172867
19 *389:18 0.00021995
20 *389:19 0.000119911

*RES
1 *389:5 *924:Y 1.40001
2 *389:6 *389:5 1.8643
3 *389:6 *389:11 0.124265
4 *389:12 *389:11 1.61573
5 *389:12 *389:19 0.248577
6 *389:18 *914:A1 1.40001
7 *389:18 *389:19 0.869996
8 *389:17 *917:B 1.40001
9 *389:17 *389:18 1.11857
10 *389:16 *389:17 0.372842
11 *389:15 *389:16 0.497154
12 *389:13 *919:AN 1.40001
13 *389:14 *389:15 0.745731
14 *389:13 *389:7 0.248577
15 *389:7 *389:14 0.124265
16 *389:8 *389:7 3.10714293
17 *389:9 *389:8 0.248577
18 *389:10 *389:9 0.372842
19 *916:D *389:10 1.40001
*END

*D_NET *390 0.000749862

*CONN
*I *923:Y O *C 68.585 66.265 *L 0 *D NOR2XL
*I *918:B I *C 68.875 63.365 *L 0.00167 *D NAND2XL
*I *915:A1 I *C 70.615 65.975 *L 0.00162 *D OA21XL

*CAP
1 *923:Y 6.54092e-05
2 *918:B 3.68005e-05
3 *915:A1 3.68005e-05
4 *390:3 5.47594e-05
5 *390:4 6.80913e-05
6 *390:5 5.24296e-05
7 *390:6 6.23596e-05
8 *390:7 0.00012546
9 *390:8 8.57114e-05
10 *390:9 4.86104e-05
11 *390:10 7.17899e-05
12 *390:11 4.164e-05

*RES
1 *390:3 *918:B 1.39999998
2 *390:3 *390:4 0.248572
3 *390:4 *390:5 0.372858
4 *390:11 *915:A1 1.39999998
5 *390:5 *390:6 0.124286
6 *390:10 *390:11 0.248572
7 *390:6 *390:7 0.497144
8 *390:7 *390:10 0.372858
9 *390:7 *390:9 0.372858
10 *390:8 *390:9 1.39999998
11 *923:Y *390:8 0.773337
*END

*D_NET *391 0.00186453

*CONN
*I *922:Y O *C 61.915 63.945 *L 0 *D NAND2XL
*I *920:B0 I *C 63.365 69.165 *L 0.0017 *D OA21XL
*I *906:B I *C 62.785 73.805 *L 0.00167 *D NAND2XL
*I *903:A1 I *C 65.105 73.805 *L 0.00274 *D OAI21X1

*CAP
1 *922:Y 3.68006e-05
2 *920:B0 3.68006e-05
3 *906:B 3.68006e-05
4 *903:A1 3.68006e-05
5 *391:4 0.0002022
6 *391:5 0.000232352
7 *391:6 0.000250471
8 *391:7 0.00032041
9 *391:8 3.97878e-05
10 *391:9 5.47584e-05
11 *391:10 0.000167629
12 *391:11 5.91782e-05
13 *391:5 *93:3 0.00019527
14 *391:4 *93:4 0.000195270003

*RES
1 *391:11 *903:A1 1.39999
2 *391:10 *391:11 0.248579
3 *391:8 *906:B 1.39999
4 *391:9 *920:B0 1.39999
5 *391:7 *391:10 0.994282
6 *391:7 *391:8 0.248579
7 *391:6 *391:9 0.248579
8 *391:6 *391:7 1.73998
9 *391:5 *391:6 0.372869
10 *391:4 *391:5 2.2371428
11 *922:Y *391:4 1.39999
*END

*D_NET *392 0.00071756

*CONN
*I *921:Y O *C 69.745 34.945 *L 0 *D NAND3X1
*I *909:A I *C 68.295 32.335 *L 0.00162 *D NOR2XL

*CAP
1 *921:Y 3.67988e-05
2 *909:A 3.67988e-05
3 *392:2 0.000143421
4 *392:3 8.06496e-05
5 *392:4 0.000178559
6 *392:5 0.00024133

*RES
1 *392:4 *921:Y 1.39999998
2 *392:5 *392:4 0.745715
3 *392:2 *392:5 0.621429
4 *392:3 *392:2 0.372858
5 *909:A *392:3 1.39999998
*END

*D_NET *393 0.00108816

*CONN
*I *919:Y O *C 64.85 52.985 *L 0 *D NOR2BXL
*I *913:B I *C 62.785 52.925 *L 0.00167 *D NAND2XL
*I *912:AN I *C 59.015 50.605 *L 0.00173 *D NOR2BX2
*I *908:A1 I *C 59.885 52.925 *L 0.00163 *D OA21X2

*CAP
1 *919:Y 3.67999e-05
2 *913:B 3.67999e-05
3 *912:AN 3.67999e-05
4 *908:A1 3.67999e-05
5 *393:4 8.48604e-05
6 *393:5 0.0001828
7 *393:6 4.78903e-05
8 *393:7 4.78903e-05
9 *393:8 0.00011327
10 *393:9 8.31198e-05
11 *393:10 0.000131749
12 *393:11 4.63311e-05
13 *393:12 4.63311e-05
14 *393:14 9.73399e-05
15 *393:15 5.93797e-05

*RES
1 *393:9 *912:AN 1.39999998
2 *393:9 *393:8 0.745715
3 *393:15 *908:A1 1.39999998
4 *393:11 *913:B 1.39999998
5 *393:8 *393:14 0.372858
6 *393:14 *393:15 0.248572
7 *393:12 *393:11 0.248572
8 *393:10 *393:14 1.39999998
9 *393:5 *393:12 1.39999998
10 *393:10 *393:5 1.24286
11 *393:5 *393:4 0.870001
12 *393:7 *393:4 1.39999998
13 *393:7 *393:6 0.124286
14 *393:6 *919:Y 1.39999998
15 *393:13 *393:6 0.18284
*END

*D_NET *394 0.00121585

*CONN
*I *918:Y O *C 68.875 63.945 *L 0 *D NAND2XL
*I *915:B0 I *C 71.195 65.395 *L 0.0017 *D OA21XL
*I *900:B I *C 74.095 63.365 *L 0.00167 *D NAND2XL
*I *896:A1 I *C 75.255 63.365 *L 0.00274 *D OAI21X1

*CAP
1 *918:Y 3.67995e-05
2 *915:B0 3.67995e-05
3 *900:B 3.67995e-05
4 *896:A1 3.67995e-05
5 *394:4 7.25209e-05
6 *394:5 7.25209e-05
7 *394:6 0.000104742
8 *394:7 0.000104742
9 *394:8 7.22191e-05
10 *394:9 7.22191e-05
11 *394:10 0.000147122
12 *394:11 0.00023549
13 *394:12 0.000122181
14 *394:15 3.24479e-05
15 *394:16 3.24479e-05

*RES
1 *394:16 *896:A1 1.39999998
2 *394:14 *394:16 0.193051
3 *394:8 *394:16 1.39999998
4 *394:9 *394:8 0.497144
5 *394:5 *918:Y 1.39999998
6 *394:7 *900:B 1.39999998
7 *394:7 *394:9 1.39999998
8 *394:5 *394:4 0.621429
9 *394:7 *394:6 0.870001
10 *394:12 *394:4 1.39999998
11 *394:10 *394:6 1.39999998
12 *394:12 *394:11 0.994287
13 *394:11 *394:10 1.24286
14 *394:15 *915:B0 1.39999998
15 *394:15 *394:11 1.39999998
16 *394:13 *394:15 0.193051
*END

*D_NET *395 0.00124079

*CONN
*I *940:A1 I *C 73.515 55.535 *L 0.00171 *D AOI211XL
*I *917:Y O *C 67.715 54.955 *L 0 *D NAND2XL
*I *914:B0 I *C 67.135 58.725 *L 0.0017 *D OA21XL
*I *899:B I *C 70.615 55.535 *L 0.00171 *D NOR2XL

*CAP
1 *940:A1 3.67974e-05
2 *917:Y 1.28221e-05
3 *914:B0 3.67974e-05
4 *899:B 3.67974e-05
5 *395:4 0.000132939
6 *395:5 0.000132939
7 *395:6 4.69599e-05
8 *395:7 4.69599e-05
9 *395:8 0.00031519
10 *395:9 0.000192712
11 *395:10 0.000156289
12 *395:13 3.31182e-05
13 *395:14 3.02277e-05
14 *395:15 3.02277e-05

*RES
1 *395:4 *914:B0 1.39999
2 *395:13 *917:Y 0.193324
3 *395:14 *940:A1 1.39999
4 *395:12 *395:14 0.0643124
5 *395:5 *395:4 1.11857
6 *395:5 *395:13 1.39999
7 *395:14 *395:15 0.124278
8 *395:9 *395:5 1.39999
9 *395:10 *395:15 1.39999
10 *395:9 *395:8 1.49142861
11 *395:8 *395:10 1.24285
12 *395:6 *395:8 1.39999
13 *395:7 *899:B 1.39999
14 *395:7 *395:6 0.124278
15 *395:11 *395:7 0.0643124
*END

*D_NET *396 0.00174704

*CONN
*I *941:A1 I *C 65.685 34.655 *L 0.00171 *D AOI211XL
*I *916:Y O *C 65.975 44.515 *L 0 *D NAND4XL
*I *909:B I *C 68.005 32.045 *L 0.00171 *D NOR2XL
*I *907:B I *C 64.815 37.265 *L 0.00171 *D NOR2XL
*I *904:B I *C 66.555 34.655 *L 0.00171 *D NOR2XL

*CAP
1 *941:A1 3.67994e-05
2 *916:Y 3.67994e-05
3 *909:B 3.67994e-05
4 *907:B 3.67994e-05
5 *904:B 3.67994e-05
6 *396:5 6.90161e-05
7 *396:6 0.000118563
8 *396:7 0.000108249
9 *396:8 7.73182e-05
10 *396:9 4.2331e-05
11 *396:10 0.000119962
12 *396:11 0.0003109
13 *396:12 0.000232358
14 *396:13 8.50225e-05
15 *396:14 8.59286e-05
16 *396:15 7.66208e-05
17 *396:16 8.70008e-05
18 *396:17 0.000149769

*RES
1 *396:16 *909:B 1.40002
2 *396:16 *396:17 0.497162
3 *396:6 *396:17 0.621431
4 *396:5 *904:B 1.40002
5 *396:6 *396:5 0.621431
6 *396:14 *916:Y 1.40002
7 *396:9 *941:A1 1.40002
8 *396:5 *396:15 0.248581
9 *396:13 *396:14 0.621431
10 *396:9 *396:10 0.248581
11 *396:10 *396:15 0.37285
12 *396:12 *396:13 0.124269
13 *396:8 *907:B 1.40002
14 *396:10 *396:11 0.497162
15 *396:11 *396:12 2.85857153
16 *396:7 *396:8 0.37285
17 *396:7 *396:11 0.37285
*END

*D_NET *397 0.00117292

*CONN
*I *913:Y O *C 62.785 53.505 *L 0 *D NAND2XL
*I *908:B0 I *C 60.465 53.215 *L 0.00167 *D OA21X2
*I *892:B I *C 61.335 55.535 *L 0.00167 *D NAND2XL
*I *891:A1 I *C 61.045 58.145 *L 0.00274 *D OAI21X1

*CAP
1 *913:Y 2.66192e-05
2 *908:B0 3.68003e-05
3 *892:B 3.68003e-05
4 *891:A1 3.68003e-05
5 *397:4 8.58609e-05
6 *397:5 8.46904e-05
7 *397:6 0.000111801
8 *397:7 0.000143119736
9 *397:8 9.1991e-05
10 *397:9 9.08205e-05
11 *397:10 0.00010222
12 *397:11 7.20698e-05
13 *397:12 4.44089e-05
14 *397:13 4.44089e-05
15 *397:14 4.69204e-05
16 *397:15 5.93794e-05
17 *397:16 5.8211e-05

*RES
1 *397:14 *913:Y 0.386658
2 *397:15 *397:14 1.39999998
3 *397:15 *397:16 0.248572
4 *397:4 *891:A1 1.39999998
5 *397:12 *397:16 0.124286
6 *397:5 *397:4 0.621429
7 *397:11 *892:B 1.39999998
8 *397:12 *397:13 0.248572
9 *397:6 *397:5 0.124286
10 *397:10 *397:11 0.497144
11 *397:10 *397:13 0.124286
12 *397:7 *397:6 0.994287
13 *397:7 *397:10 0.248572
14 *397:9 *397:7 0.124286
15 *397:8 *397:9 0.497144
16 *908:B0 *397:8 1.39999998
*END

*D_NET *398 0.000968031

*CONN
*I *912:Y O *C 57.275 50.315 *L 0 *D NOR2BX2
*I *905:B I *C 60.755 47.705 *L 0.00167 *D NAND2XL
*I *902:A1 I *C 57.565 47.705 *L 0.00276 *D OA21X4

*CAP
1 *912:Y 3.67982e-05
2 *905:B 3.67982e-05
3 *902:A1 3.67982e-05
4 *398:3 0.00024347
5 *398:4 0.00024347
6 *398:5 4.19696e-05
7 *398:6 4.19696e-05
8 *398:7 8.44891e-05
9 *398:8 8.53993e-05
10 *398:9 5.498e-05
11 *398:10 6.18789e-05

*RES
1 *398:6 *905:B 1.39999998
2 *398:6 *398:5 0.372858
3 *398:3 *398:5 1.39999998
4 *398:9 *902:A1 1.39999998
5 *398:4 *398:3 1.36714
6 *398:9 *398:10 0.372858
7 *398:10 *398:4 1.39999998
8 *398:8 *912:Y 1.39999998
9 *398:7 *398:10 0.124286
10 *398:7 *398:8 0.745715
*END

*D_NET *399 0.000418402

*CONN
*I *911:Y O *C 59.885 70.615 *L 0 *D NAND2XL
*I *910:B0 I *C 56.985 70.905 *L 0.0028 *D OAI21X1

*CAP
1 *911:Y 3.68011e-05
2 *910:B0 3.68011e-05
3 *399:2 0.00013995
4 *399:3 0.00013995
5 *399:6 3.24511e-05
6 *399:7 3.24511e-05

*RES
1 *399:5 *399:7 0.193051
2 *399:7 *911:Y 1.39999998
3 *399:2 *399:7 1.39999998
4 *399:3 *399:2 1.36714
5 *399:6 *910:B0 1.39999998
6 *399:6 *399:3 1.39999998
7 *399:4 *399:6 0.193051
*END

*D_NET *400 0.00129115

*CONN
*I *909:Y O *C 67.715 31.755 *L 0 *D NOR2XL
*I *897:B I *C 66.845 29.435 *L 0.00167 *D NAND2XL
*I *895:A1 I *C 76.125 29.435 *L 0.00162 *D OA21XL

*CAP
1 *909:Y 2.56601e-05
2 *897:B 3.68003e-05
3 *895:A1 3.68003e-05
4 *400:3 9.01515e-05
5 *400:4 9.10588e-05
6 *400:5 0.00019689
7 *400:6 0.00019604
8 *400:7 0.00010703
9 *400:8 0.00010703
10 *400:9 0.00011181
11 *400:10 0.00011266
12 *400:12 4.64593e-05
13 *400:13 5.29396e-05
14 *400:14 4.73696e-05
15 *400:15 3.245e-05

*RES
1 *400:13 *909:Y 0.386678
2 *400:14 *400:13 1.4
3 *400:12 *400:14 0.372846
4 *400:3 *400:12 0.124282
5 *400:4 *897:B 1.4
6 *400:4 *400:3 0.621436
7 *400:10 *400:4 1.4
8 *400:10 *400:9 1.11856
9 *400:9 *400:8 0.124282
10 *400:8 *400:7 1.11856
11 *400:6 *400:7 0.124282
12 *400:6 *400:5 1.74000001
13 *400:15 *895:A1 1.4
14 *400:15 *400:5 1.4
15 *400:11 *400:15 0.193047
*END

*D_NET *401 0.00122973

*CONN
*I *907:Y O *C 65.105 36.975 *L 0 *D NOR2XL
*I *901:AN I *C 66.265 37.265 *L 0.00174 *D NOR2BX1
*I *898:B I *C 62.785 37.265 *L 0.00167 *D NAND2XL
*I *894:A1 I *C 59.885 39.875 *L 0.00162 *D OA21XL

*CAP
1 *907:Y 3.68003e-05
2 *901:AN 3.68003e-05
3 *898:B 3.68003e-05
4 *894:A1 3.68003e-05
5 *401:4 0.000132061
6 *401:5 0.000132061
7 *401:6 3.95113e-05
8 *401:7 3.95113e-05
9 *401:8 0.000163491
10 *401:9 0.0002605
11 *401:12 0.00015062
12 *401:13 3.24477e-05
13 *401:14 3.93602e-05
14 *401:15 5.36105e-05
15 *401:16 3.93602e-05

*RES
1 *401:16 *901:AN 1.39999998
2 *401:4 *894:A1 1.39999998
3 *401:14 *401:16 0.124286
4 *401:7 *907:Y 1.39999998
5 *401:5 *401:4 1.11857
6 *401:15 *401:14 1.39999998
7 *401:11 *401:6 0.18284
8 *401:7 *401:6 0.124286
9 *401:12 *401:5 1.39999998
10 *401:8 *401:15 0.372858
11 *401:8 *401:6 1.39999998
12 *401:12 *401:9 1.24286
13 *401:9 *401:8 0.994287
14 *401:13 *898:B 1.39999998
15 *401:13 *401:9 1.39999998
16 *401:10 *401:13 0.193051
*END

*D_NET *402 0.000483362

*CONN
*I *906:Y O *C 62.785 74.385 *L 0 *D NAND2XL
*I *903:B0 I *C 65.685 74.095 *L 0.0028 *D OAI21X1

*CAP
1 *906:Y 3.68014e-05
2 *903:B0 3.68014e-05
3 *402:4 3.24495e-05
4 *402:5 0.00017243
5 *402:6 3.24495e-05
6 *402:7 0.00017243

*RES
1 *402:6 *903:B0 1.39999998
2 *402:3 *402:6 0.193051
3 *402:7 *402:6 1.39999998
4 *402:5 *402:7 1.36714
5 *402:4 *402:5 1.39999998
6 *402:4 *906:Y 1.39999998
7 *402:2 *402:4 0.193051
*END

*D_NET *403 0.00124795

*CONN
*I *905:Y O *C 60.755 48.285 *L 0 *D NAND2XL
*I *902:B0 I *C 58.145 47.705 *L 0.00282 *D OA21X4
*I *889:B I *C 61.915 45.095 *L 0.00167 *D NAND2XL
*I *888:A1 I *C 60.755 45.095 *L 0.00274 *D OAI21X1

*CAP
1 *905:Y 3.68011e-05
2 *902:B0 3.68011e-05
3 *889:B 3.68011e-05
4 *888:A1 3.68011e-05
5 *403:4 0.000113778
6 *403:5 4.29112e-05
7 *403:6 5.64507e-05
8 *403:7 0.000263609414
9 *403:8 5.64507e-05
10 *403:9 4.15999e-05
11 *403:10 4.69296e-05
12 *403:11 0.000263609414
13 *403:12 3.68776e-05
14 *403:13 3.99386e-05
15 *403:14 4.58717e-05
16 *403:15 9.27208e-05

*RES
1 *403:14 *889:B 1.39999998
2 *403:5 *888:A1 1.39999998
3 *403:14 *403:15 0.248572
4 *403:5 *403:4 0.248572
5 *403:4 *403:15 0.497144
6 *403:4 *403:13 0.248572
7 *403:9 *403:13 0.124286
8 *403:12 *905:Y 1.39999998
9 *403:9 *403:10 0.248572
10 *403:10 *403:12 0.248572
11 *403:11 *403:10 1.39999998
12 *403:8 *902:B0 1.39999998
13 *403:7 *403:11 0.994287
14 *403:6 *403:8 0.372858
15 *403:6 *403:7 1.39999998
*END

*D_NET *404 0.001535

*CONN
*I *941:B0 I *C 65.105 34.655 *L 0.00174 *D AOI211XL
*I *904:Y O *C 66.845 34.945 *L 0 *D NOR2XL
*I *880:B I *C 61.335 29.145 *L 0.00407 *D ADDHX1

*CAP
1 *941:B0 3.68009e-05
2 *904:Y 3.68009e-05
3 *880:B 3.68009e-05
4 *404:3 4.04514e-05
5 *404:4 4.04514e-05
6 *404:5 3.99706e-05
7 *404:6 4.0879e-05
8 *404:7 0.000145742
9 *404:8 0.000145742
10 *404:11 7.56786e-05
11 *404:12 7.65898e-05
12 *404:13 7.34705e-05
13 *404:14 7.26207e-05
14 *404:15 0.000120541
15 *404:16 3.24517e-05
16 *404:17 0.00018318
17 *404:18 9.55996e-05
18 *404:17 *479:69 0.00010693
19 *404:15 *479:70 0.00010693
20 *404:14 *479:69 1.369e-05
21 *404:13 *479:70 1.36900045e-05

*RES
1 *404:6 *880:B 1.39999998
2 *404:6 *404:5 0.372858
3 *404:5 *404:8 0.124286
4 *404:8 *404:7 1.24286
5 *404:11 *404:7 0.124286
6 *404:11 *404:12 0.621429
7 *404:13 *404:12 1.39999998
8 *404:10 *404:3 0.18284
9 *404:3 *904:Y 1.39999998
10 *404:13 *404:14 0.372858
11 *404:4 *404:3 0.124286
12 *404:14 *404:15 0.124286
13 *404:18 *404:4 1.39999998
14 *404:15 *404:17 1.24286
15 *404:17 *404:18 0.745715
16 *404:16 *941:B0 1.39999998
17 *404:16 *404:17 1.39999998
18 *404:9 *404:16 0.193051
*END

*D_NET *405 0.00172863

*CONN
*I *901:Y O *C 67.125 37.555 *L 0 *D NOR2BX1
*I *893:B I *C 67.715 37.265 *L 0.00167 *D NAND2XL
*I *890:A1 I *C 76.125 39.875 *L 0.00162 *D OA21XL

*CAP
1 *901:Y 3.6797e-05
2 *893:B 3.6797e-05
3 *890:A1 4.9197e-05
4 *405:3 4.576e-05
5 *405:4 4.576e-05
6 *405:5 0.00035194
7 *405:6 4.24358e-05
8 *405:7 0.000277863
9 *405:8 0.000104489
10 *405:9 0.000104489
11 *405:11 3.24525e-05
12 *405:12 9.11118e-05
13 *405:13 6.20211e-05
14 *405:14 4.00997e-05
15 *405:7 *410:6 3.764e-05
16 *405:5 *410:7 3.764e-05
17 *405:7 *410:7 2.867e-05
18 *405:5 *410:8 2.867e-05
19 *405:7 *410:9 1.073e-05
20 *405:5 *410:10 1.073e-05
21 *405:5 *410:7 2.65e-06
22 *405:6 *410:8 2.65e-06
23 *405:3 *410:11 3.769e-05
24 *405:4 *410:12 3.76900045e-05
25 *405:7 *353:12 1.982e-05
26 *405:5 *353:13 1.982e-05
27 *405:7 *353:10 8.22e-06
28 *405:5 *353:11 8.22e-06
29 *405:7 *353:24 2.011e-05
30 *405:5 *353:23 2.011e-05
31 *405:7 *353:23 1.437e-05
32 *405:5 *353:20 1.437e-05
33 *405:8 *353:26 2.381e-05
34 *405:9 *353:25 2.38100016e-05

*RES
1 *890:A1 *405:13 0.579972
2 *405:13 *405:14 0.193324
3 *405:4 *901:Y 1.39998
4 *405:8 *405:14 1.39998
5 *405:4 *405:3 0.37288
6 *405:9 *405:8 0.994271
7 *405:6 *405:3 1.39998
8 *405:7 *405:9 1.39998
9 *405:6 *405:5 0.248568
10 *405:5 *405:7 3.72857141
11 *405:12 *405:5 0.497135
12 *405:11 *893:B 1.39998
13 *405:11 *405:12 1.39998
14 *405:10 *405:11 0.19304
*END

*D_NET *406 0.00034476

*CONN
*I *900:Y O *C 74.095 63.945 *L 0 *D NAND2XL
*I *896:B0 I *C 75.835 63.655 *L 0.0028 *D OAI21X1

*CAP
1 *900:Y 3.68005e-05
2 *896:B0 3.68005e-05
3 *406:2 3.91007e-05
4 *406:3 3.04198e-05
5 *406:4 6.17397e-05
6 *406:5 3.47401e-05
7 *406:6 6.606e-05
8 *406:7 3.91007e-05

*RES
1 *406:7 *896:B0 1.39999998
2 *406:5 *406:7 0.124286
3 *406:5 *406:6 0.248572
4 *406:4 *406:6 0.372858
5 *406:3 *406:4 0.124286
6 *406:2 *406:3 0.124286
7 *900:Y *406:2 1.39999998
*END

*D_NET *407 0.00130492

*CONN
*I *940:B0 I *C 74.095 55.535 *L 0.00174 *D AOI211XL
*I *899:Y O *C 70.325 55.825 *L 0 *D NOR2XL
*I *887:B I *C 70.905 52.925 *L 0.00167 *D NAND2XL
*I *882:A1 I *C 72.645 52.925 *L 0.00162 *D OA21XL

*CAP
1 *940:B0 3.67994e-05
2 *899:Y 3.67994e-05
3 *887:B 3.67994e-05
4 *882:A1 3.67994e-05
5 *407:4 0.00013216
6 *407:5 0.000108651
7 *407:7 0.00011008
8 *407:8 7.99304e-05
9 *407:9 3.91001e-05
10 *407:10 6.81898e-05
11 *407:11 3.24505e-05
12 *407:12 9.23305e-05
13 *407:13 0.000138960059
14 *407:14 5.79504e-05
15 *407:15 0.00013779
16 *407:16 7.94809e-05
17 *407:17 8.06492e-05

*RES
1 *407:8 *899:Y 1.39999998
2 *407:17 *940:B0 1.39999998
3 *407:7 *407:8 0.745715
4 *407:16 *407:17 0.372858
5 *407:9 *887:B 1.39999998
6 *407:7 *407:4 0.372858
7 *407:15 *407:16 0.124286
8 *407:9 *407:5 0.124286
9 *407:5 *407:4 0.497144
10 *407:13 *407:15 0.745715
11 *407:10 *407:5 1.39999998
12 *407:14 *407:13 1.39999998
13 *407:10 *407:12 0.621429
14 *407:12 *407:14 0.497144
15 *407:11 *882:A1 1.39999998
16 *407:11 *407:12 1.39999998
17 *407:6 *407:11 0.193051
*END

*D_NET *408 0.001504

*CONN
*I *898:Y O *C 62.785 37.845 *L 0 *D NAND2XL
*I *894:B0 I *C 59.305 39.295 *L 0.0017 *D OA21XL
*I *886:B I *C 55.825 37.265 *L 0.00167 *D NAND2XL
*I *883:A1 I *C 55.535 39.875 *L 0.00274 *D OAI21X1

*CAP
1 *898:Y 3.68002e-05
2 *894:B0 3.68002e-05
3 *886:B 3.68002e-05
4 *883:A1 3.68002e-05
5 *408:4 0.000105699
6 *408:5 0.00010479
7 *408:6 8.77023e-05
8 *408:7 8.77023e-05
9 *408:8 0.000140862
10 *408:9 0.00022312
11 *408:10 0.000115218
12 *408:11 3.48698e-05
13 *408:12 3.48698e-05
14 *408:13 5.83002e-05
15 *408:14 7.02095e-05
16 *408:15 4.109e-05
17 *408:16 4.34596e-05
18 *408:8 *23:8 8.53e-06
19 *408:9 *23:9 8.53e-06
20 *408:8 *23:9 4.561e-05
21 *408:9 *23:10 4.561e-05
22 *408:9 *23:9 4.044e-05
23 *408:10 *23:10 4.044e-05
24 *408:11 *23:15 9.87e-06
25 *408:12 *23:14 9.86999934e-06

*RES
1 *408:12 *898:Y 1.39999
2 *408:6 *894:B0 1.39999
3 *408:12 *408:11 0.248579
4 *408:7 *408:6 0.372857
5 *408:8 *408:11 1.39999
6 *408:9 *408:7 1.39999
7 *408:9 *408:8 1.49142861
8 *408:10 *408:9 1.49142861
9 *408:13 *886:B 1.39999
10 *408:15 *408:10 0.124278
11 *408:13 *408:14 0.372857
12 *408:14 *408:15 1.39999
13 *408:4 *883:A1 1.39999
14 *408:14 *408:16 0.248579
15 *408:5 *408:4 0.497135
16 *408:5 *408:16 0.124278
*END

*D_NET *409 0.00297032

*CONN
*I *897:Y O *C 66.845 28.855 *L 0 *D NAND2XL
*I *895:B0 I *C 76.705 28.855 *L 0.0017 *D OA21XL
*I *885:B I *C 69.745 21.605 *L 0.00167 *D NAND2XL
*I *884:A1 I *C 76.995 21.605 *L 0.00274 *D OAI21X1

*CAP
1 *897:Y 3.68023e-05
2 *895:B0 3.68023e-05
3 *885:B 3.68023e-05
4 *884:A1 3.68023e-05
5 *409:4 0.00027751
6 *409:5 0.000276312
7 *409:6 8.37887e-05
8 *409:7 8.49913e-05
9 *409:8 6.00414e-05
10 *409:9 7.44685e-05
11 *409:10 0.00015332
12 *409:11 0.000153027
13 *409:12 6.10323e-05
14 *409:13 6.10323e-05
15 *409:14 0.00020344
16 *409:15 0.00020344
17 *409:16 0.000196131
18 *409:17 0.000174132
19 *409:18 7.44007e-05
20 *409:19 7.34903e-05
21 *409:22 3.24492e-05
22 *409:23 6.21121e-05
23 *409:24 4.64782e-05
24 *409:25 5.496e-05
25 *409:26 4.24215e-05
26 *409:27 4.32684e-05
27 *409:18 *125:138 3.7e-05
28 *409:19 *125:139 3.7e-05
29 *409:12 *125:139 6.281e-05
30 *409:13 *125:140 6.281e-05
31 *409:10 *125:139 5.605e-05
32 *409:11 *125:140 5.605e-05
33 *409:24 *125:140 9.58e-06
34 *409:23 *125:141 9.57999e-06

*RES
1 *409:8 *885:B 1.40001
2 *409:9 *409:8 0.372865
3 *409:7 *884:A1 1.40001
4 *409:9 *409:23 0.248588
5 *409:7 *409:6 0.745729
6 *409:23 *409:24 0.372865
7 *409:5 *409:6 0.124276
8 *409:24 *409:13 0.124276
9 *409:4 *895:B0 1.40001
10 *409:5 *409:4 2.3614285
11 *409:21 *409:4 0.193062
12 *409:13 *409:12 0.621417
13 *409:27 *409:4 1.40001
14 *409:11 *409:12 0.124276
15 *409:26 *409:27 0.372865
16 *409:11 *409:10 1.49142
17 *409:14 *409:26 0.124276
18 *409:10 *409:19 0.124276
19 *409:15 *409:14 1.86429
20 *409:19 *409:18 0.994282
21 *409:15 *409:25 0.124276
22 *409:16 *409:18 1.40001
23 *409:16 *409:25 0.372865
24 *409:17 *409:16 1.6157
25 *409:22 *409:17 1.40001
26 *409:22 *897:Y 1.40001
27 *409:20 *409:22 0.193062
*END

*D_NET *410 0.00184182

*CONN
*I *893:Y O *C 67.715 37.845 *L 0 *D NAND2XL
*I *890:B0 I *C 76.705 39.295 *L 0.0017 *D OA21XL
*I *881:B I *C 67.135 39.875 *L 0.00167 *D NAND2XL
*I *879:A1 I *C 70.905 42.485 *L 0.00274 *D OAI21X1

*CAP
1 *893:Y 3.68013e-05
2 *890:B0 3.68013e-05
3 *881:B 3.68013e-05
4 *879:A1 3.68013e-05
5 *410:4 0.00022313
6 *410:5 0.00022313
7 *410:6 0.000163739
8 *410:7 0.00028657
9 *410:8 0.000155789
10 *410:9 7.11495e-05
11 *410:10 7.03012e-05
12 *410:11 6.55479e-05
13 *410:12 6.64619e-05
14 *410:14 5.03394e-05
15 *410:15 5.1249e-05
16 *410:16 3.24504e-05
17 *410:6 *405:7 3.764e-05
18 *410:7 *405:5 3.764e-05
19 *410:7 *405:7 2.867e-05
20 *410:8 *405:5 2.867e-05
21 *410:9 *405:7 1.073e-05
22 *410:10 *405:5 1.073e-05
23 *410:7 *405:5 2.65e-06
24 *410:8 *405:6 2.65e-06
25 *410:11 *405:3 3.769e-05
26 *410:12 *405:4 3.76900045e-05

*RES
1 *410:12 *893:Y 1.40001
2 *410:12 *410:11 0.621419
3 *410:14 *410:11 0.124284
4 *410:4 *879:A1 1.40001
5 *410:15 *881:B 1.40001
6 *410:14 *410:15 0.372851
7 *410:5 *410:4 1.11858
8 *410:8 *410:15 1.40001
9 *410:7 *410:5 1.40001
10 *410:8 *410:7 1.61572
11 *410:7 *410:6 1.86428571
12 *410:10 *410:6 0.124284
13 *410:10 *410:9 0.621419
14 *410:16 *890:B0 1.40001
15 *410:16 *410:9 1.40001
16 *410:13 *410:16 0.193068
*END

*D_NET *411 0.000528519

*CONN
*I *892:Y O *C 61.335 54.955 *L 0 *D NAND2XL
*I *891:B0 I *C 61.625 58.435 *L 0.0028 *D OAI21X1

*CAP
1 *892:Y 3.67996e-05
2 *891:B0 3.67996e-05
3 *411:2 6.12288e-05
4 *411:3 7.57198e-05
5 *411:4 0.00016623
6 *411:5 0.000151739

*RES
1 *411:5 *891:B0 1.39999998
2 *411:4 *411:5 0.745715
3 *411:3 *411:4 0.248572
4 *411:2 *411:3 0.248572
5 *892:Y *411:2 1.39999998
*END

*D_NET *412 0.000342659

*CONN
*I *889:Y O *C 61.915 44.515 *L 0 *D NAND2XL
*I *888:B0 I *C 60.175 44.805 *L 0.0028 *D OAI21X1

*CAP
1 *889:Y 3.67994e-05
2 *888:B0 3.67994e-05
3 *412:2 3.93599e-05
4 *412:3 6.591e-05
5 *412:4 3.40698e-05
6 *412:5 6.10996e-05
7 *412:6 2.92595e-05
8 *412:7 3.93599e-05

*RES
1 *412:7 *889:Y 1.39999998
2 *412:6 *412:7 0.124286
3 *412:5 *412:6 0.124286
4 *412:3 *412:5 0.372858
5 *412:3 *412:4 0.248572
6 *412:2 *412:4 0.124286
7 *888:B0 *412:2 1.39999998
*END

*D_NET *413 0.00135989

*CONN
*I *887:Y O *C 70.905 53.505 *L 0 *D NAND2XL
*I *882:B0 I *C 73.225 53.505 *L 0.0017 *D OA21XL
*I *876:B I *C 70.325 47.705 *L 0.00167 *D NAND2XL
*I *875:A1 I *C 71.775 47.705 *L 0.00274 *D OAI21X1

*CAP
1 *887:Y 3.99189e-05
2 *882:B0 3.67985e-05
3 *876:B 3.67985e-05
4 *875:A1 3.67985e-05
5 *413:4 8.36488e-05
6 *413:5 0.000120559
7 *413:6 6.84595e-05
8 *413:7 5.51705e-05
9 *413:8 5.51705e-05
10 *413:9 6.11206e-05
11 *413:10 6.11206e-05
12 *413:12 0.000116431
13 *413:13 0.000116431
14 *413:14 0.00013992
15 *413:15 6.72005e-05
16 *413:16 0.000170129922
17 *413:17 6.17592e-05
18 *413:18 3.24502e-05

*RES
1 *413:8 *876:B 1.39999998
2 *413:8 *413:7 0.372858
3 *413:12 *413:7 1.39999998
4 *413:6 *875:A1 1.39999998
5 *413:12 *413:13 0.621429
6 *413:6 *413:5 0.372858
7 *413:5 *413:13 1.39999998
8 *413:5 *413:4 0.994287
9 *413:4 *413:14 0.124286
10 *887:Y *413:15 0.580008
11 *413:14 *413:16 0.870001
12 *413:16 *413:15 1.39999998
13 *413:16 *413:17 0.248572
14 *413:10 *413:17 1.39999998
15 *413:10 *413:9 0.497144
16 *413:18 *882:B0 1.39999998
17 *413:18 *413:9 1.39999998
18 *413:11 *413:18 0.193051
*END

*D_NET *414 0.00036199

*CONN
*I *886:Y O *C 55.825 37.845 *L 0 *D NAND2XL
*I *883:B0 I *C 54.955 39.585 *L 0.0028 *D OAI21X1

*CAP
1 *886:Y 3.67995e-05
2 *883:B0 3.67995e-05
3 *414:2 4.35399e-05
4 *414:3 4.44491e-05
5 *414:4 8.052e-05
6 *414:5 8.052e-05
7 *414:6 3.936e-05

*RES
1 *414:6 *886:Y 1.39999998
2 *414:4 *414:6 0.124286
3 *414:3 *883:B0 1.39999998
4 *414:4 *414:5 0.745715
5 *414:2 *414:3 0.248572
6 *414:2 *414:5 0.124286
*END

*D_NET *415 0.000908101

*CONN
*I *885:Y O *C 69.745 22.185 *L 0 *D NAND2XL
*I *884:B0 I *C 77.575 21.895 *L 0.0028 *D OAI21X1

*CAP
1 *885:Y 3.68006e-05
2 *884:B0 3.68006e-05
3 *415:2 0.00033119
4 *415:3 0.000217377
5 *415:4 0.000167422
6 *415:7 3.24494e-05
7 *415:8 3.24494e-05
8 *415:9 5.3609e-05

*RES
1 *415:8 *884:B0 1.4
2 *415:6 *415:8 0.193074
3 *415:9 *415:8 1.4
4 *415:4 *415:9 0.372857
5 *415:2 *415:4 0.87
6 *415:3 *415:2 1.98857141
7 *415:7 *415:3 1.4
8 *415:7 *885:Y 1.4
9 *415:5 *415:7 0.193074
*END

*D_NET *416 0.000858421

*CONN
*I *881:Y O *C 67.135 39.295 *L 0 *D NAND2XL
*I *879:B0 I *C 71.485 42.775 *L 0.0028 *D OAI21X1

*CAP
1 *881:Y 3.68024e-05
2 *879:B0 3.68024e-05
3 *416:2 0.000143461
4 *416:3 0.000143461
5 *416:4 0.00020731
6 *416:5 0.00020731
7 *416:6 4.16391e-05
8 *416:7 4.16391e-05

*RES
1 *416:2 *879:B0 1.4
2 *416:3 *416:2 0.745718
3 *416:4 *416:3 1.4
4 *416:5 *416:4 1.74000001
5 *416:7 *416:5 1.4
6 *416:6 *416:7 0.248564
7 *881:Y *416:6 1.4
*END

*D_NET *417 0.00115429

*CONN
*I *880:CO O *C 62.495 29.435 *L 0 *D ADDHX1
*I *878:B I *C 59.305 24.215 *L 0.00167 *D NAND2XL
*I *877:A1 I *C 58.145 24.215 *L 0.00162 *D OA21XL

*CAP
1 *880:CO 3.68002e-05
2 *878:B 3.68002e-05
3 *877:A1 3.68002e-05
4 *417:3 0.000172190449
5 *417:4 0.000172190449
6 *417:5 4.58202e-05
7 *417:6 9.15091e-05
8 *417:7 4.58413e-05
9 *417:8 0.000111099
10 *417:9 3.64008e-05
11 *417:10 0.00012209
12 *417:11 0.000121181
13 *417:12 6.23286e-05
14 *417:13 6.32403e-05

*RES
1 *417:13 *880:CO 1.39999998
2 *417:12 *417:13 0.621429
3 *417:11 *417:12 0.124286
4 *417:10 *417:11 1.11857
5 *417:3 *417:10 1.39999998
6 *417:4 *417:3 1.24286
7 *417:7 *878:B 1.39999998
8 *417:9 *417:4 1.39999998
9 *417:7 *417:8 0.248572
10 *417:8 *417:9 0.248572
11 *417:6 *417:8 0.497144
12 *417:5 *417:6 0.248572
13 *877:A1 *417:5 1.39999998
*END

*D_NET *418 0.00157312

*CONN
*I *878:Y O *C 59.305 23.635 *L 0 *D NAND2XL
*I *877:B0 I *C 57.565 23.635 *L 0.0017 *D OA21XL
*I *874:B I *C 60.465 24.215 *L 0.00167 *D NAND2XL
*I *873:A1 I *C 67.425 24.215 *L 0.00274 *D OAI21X1

*CAP
1 *878:Y 3.67991e-05
2 *877:B0 3.67991e-05
3 *874:B 3.67991e-05
4 *873:A1 3.67991e-05
5 *418:4 0.00022301
6 *418:5 0.000222129
7 *418:6 4.08792e-05
8 *418:7 4.08792e-05
9 *418:8 0.000157562
10 *418:9 0.00015844
11 *418:10 8.5961e-05
12 *418:11 8.47224e-05
13 *418:12 3.78302e-05
14 *418:13 0.000118489
15 *418:14 6.37706e-05
16 *418:15 0.000103231
17 *418:16 4.923e-05
18 *418:17 3.97903e-05

*RES
1 *418:6 *873:A1 1.40001
2 *418:7 *418:6 0.372851
3 *418:4 *418:7 1.40001
4 *418:5 *418:4 1.86428571
5 *418:5 *418:8 0.124284
6 *418:9 *418:8 1.11858
7 *418:17 *874:B 1.40001
8 *418:16 *418:9 1.40001
9 *418:16 *418:17 0.248568
10 *418:15 *418:16 0.248568
11 *418:13 *418:15 0.621419
12 *418:13 *418:14 0.372851
13 *418:14 *878:Y 1.40001
14 *418:12 *418:14 0.124284
15 *418:11 *418:12 0.124284
16 *418:10 *418:11 0.497135
17 *877:B0 *418:10 1.40001
*END

*D_NET *419 0.000300821

*CONN
*I *876:Y O *C 70.325 48.285 *L 0 *D NAND2XL
*I *875:B0 I *C 72.355 47.995 *L 0.0028 *D OAI21X1

*CAP
1 *876:Y 3.67997e-05
2 *875:B0 3.67997e-05
3 *419:4 3.24504e-05
4 *419:5 8.116e-05
5 *419:6 3.24504e-05
6 *419:7 8.116e-05

*RES
1 *419:6 *875:B0 1.39999998
2 *419:3 *419:6 0.193051
3 *419:7 *419:6 1.39999998
4 *419:5 *419:7 0.745715
5 *419:4 *419:5 1.39999998
6 *419:4 *876:Y 1.39999998
7 *419:2 *419:4 0.193051
*END

*D_NET *420 0.000777758

*CONN
*I *874:Y O *C 60.465 23.635 *L 0 *D NAND2XL
*I *873:B0 I *C 68.005 23.925 *L 0.0028 *D OAI21X1

*CAP
1 *874:Y 3.67988e-05
2 *873:B0 3.67988e-05
3 *420:2 0.00031963
4 *420:3 0.00031963
5 *420:6 3.24483e-05
6 *420:7 3.24483e-05

*RES
1 *420:7 *873:B0 1.40002
2 *420:5 *420:7 0.19304
3 *420:2 *420:7 1.40002
4 *420:3 *420:2 3.35571432
5 *420:6 *420:3 1.40002
6 *420:6 *874:Y 1.40002
7 *420:4 *420:6 0.19304
*END

*D_NET *421 0.00124736

*CONN
*I *872:Y O *C 59.595 57.855 *L 0 *D NOR2XL
*I *835:D I *C 54.085 57.855 *L 0.0016 *D DFFQX1

*CAP
1 *872:Y 3.68013e-05
2 *835:D 3.68013e-05
3 *421:2 0.00055443
4 *421:3 0.00055443
5 *421:6 3.24528e-05
6 *421:7 3.24528e-05

*RES
1 *421:5 *421:7 0.193062
2 *421:7 *872:Y 1.40001
3 *421:2 *421:7 1.40001
4 *421:3 *421:2 2.3614285
5 *421:6 *835:D 1.40001
6 *421:6 *421:3 1.40001
7 *421:4 *421:6 0.193062
*END

*D_NET *422 0.00038747

*CONN
*I *871:Y O *C 54.12 71.135 *L 0 *D NOR2BXL
*I *848:D I *C 52.925 73.515 *L 0.0016 *D DFFQX1

*CAP
1 *871:Y 2.56597e-05
2 *848:D 3.67998e-05
3 *422:2 0.00011939
4 *422:3 0.0001049
5 *422:4 4.59597e-05
6 *422:5 5.47607e-05

*RES
1 *422:4 *871:Y 0.386658
2 *422:3 *848:D 1.39999998
3 *422:5 *422:4 1.39999998
4 *422:2 *422:3 0.870001
5 *422:2 *422:5 0.248572
*END

*D_NET *423 0.00105656

*CONN
*I *870:Y O *C 54.12 68.645 *L 0 *D NOR2BXL
*I *847:D I *C 50.315 63.075 *L 0.0016 *D DFFQX1

*CAP
1 *870:Y 3.67993e-05
2 *847:D 3.67993e-05
3 *423:2 0.000155
4 *423:3 0.000155
5 *423:4 0.00014574
6 *423:5 0.0001479
7 *423:6 6.16783e-05
8 *423:7 0.000129059
9 *423:8 5.9519e-05
10 *423:9 0.000129059

*RES
1 *423:9 *870:Y 1.39999998
2 *423:7 *423:9 0.994287
3 *423:8 *423:7 1.39999998
4 *423:4 *423:8 0.372858
5 *423:5 *423:4 0.870001
6 *423:6 *423:5 0.372858
7 *423:2 *423:6 1.39999998
8 *423:3 *423:2 1.24286
9 *847:D *423:3 1.39999998
*END

*D_NET *424 0.000874283

*CONN
*I *869:Y O *C 59.34 60.695 *L 0 *D NOR2BXL
*I *840:D I *C 51.765 61.045 *L 0.0016 *D DFFQX1

*CAP
1 *869:Y 3.6803e-05
2 *840:D 3.6803e-05
3 *424:2 0.00036789
4 *424:3 0.00036789
5 *424:6 3.24525e-05
6 *424:7 3.24525e-05

*RES
1 *424:5 *424:7 0.19304
2 *424:7 *869:Y 1.39999
3 *424:2 *424:7 1.39999
4 *424:3 *424:2 3.23142862
5 *424:6 *840:D 1.39999
6 *424:6 *424:3 1.39999
7 *424:4 *424:6 0.19304
*END

*D_NET *425 0.000729132

*CONN
*I *868:Y O *C 77.855 23.925 *L 0 *D NOR2BX1
*I *846:D I *C 75.255 21.315 *L 0.0016 *D DFFQX1

*CAP
1 *868:Y 2.58194e-05
2 *846:D 3.68006e-05
3 *425:3 3.2451e-05
4 *425:4 0.000159780391
5 *425:5 0.00013419
6 *425:6 0.000159780391
7 *425:7 4.61214e-05
8 *425:8 0.00013419

*RES
1 *868:Y *425:7 0.386658
2 *425:8 *425:7 1.39999998
3 *425:5 *425:8 1.11857
4 *425:6 *425:5 1.39999998
5 *425:4 *425:6 1.36714
6 *425:3 *846:D 1.39999998
7 *425:3 *425:4 1.39999998
8 *425:2 *425:3 0.193051
*END

*D_NET *426 0.000951068

*CONN
*I *867:Y O *C 74.375 47.995 *L 0 *D NOR2BX1
*I *844:D I *C 76.995 42.195 *L 0.0016 *D DFFQX1

*CAP
1 *867:Y 3.68011e-05
2 *844:D 3.68011e-05
3 *426:3 0.00031717
4 *426:4 0.000105341
5 *426:5 0.00031717
6 *426:6 3.24502e-05
7 *426:7 0.000105341

*RES
1 *426:5 *867:Y 1.4
2 *426:3 *426:5 2.4857142
3 *426:4 *426:3 1.4
4 *426:4 *426:7 1.11856
5 *426:6 *844:D 1.4
6 *426:6 *426:7 1.4
7 *426:2 *426:6 0.193059
*END

*D_NET *427 0.000683359

*CONN
*I *866:Y O *C 77.855 37.555 *L 0 *D NOR2BX1
*I *843:D I *C 75.255 34.945 *L 0.0016 *D DFFQX1

*CAP
1 *866:Y 2.56595e-05
2 *843:D 3.68003e-05
3 *427:2 0.0001287
4 *427:3 0.0001287
5 *427:4 0.000101919
6 *427:5 0.000101919
7 *427:6 5.68491e-05
8 *427:7 4.59597e-05
9 *427:8 5.68491e-05

*RES
1 *866:Y *427:7 0.386658
2 *427:8 *427:7 1.39999998
3 *427:6 *427:8 0.372858
4 *427:2 *427:6 1.39999998
5 *427:3 *427:2 1.36714
6 *427:5 *427:3 1.39999998
7 *427:4 *427:5 0.497144
8 *843:D *427:4 1.39999998
*END

*D_NET *428 0.000303591

*CONN
*I *865:Y O *C 67.46 71.135 *L 0 *D NOR2BXL
*I *829:D I *C 65.975 71.485 *L 0.0016 *D DFFQX1

*CAP
1 *865:Y 1.28199e-05
2 *829:D 3.68008e-05
3 *428:2 9.02901465e-05
4 *428:3 4.44803e-05
5 *428:4 3.31195e-05
6 *428:5 8.60798e-05

*RES
1 *428:4 *865:Y 0.193329
2 *428:3 *829:D 1.39999998
3 *428:5 *428:4 1.39999998
4 *428:2 *428:3 0.248572
5 *428:2 *428:5 0.497144
*END

*D_NET *429 0.0009394

*CONN
*I *864:Y O *C 53.805 37.555 *L 0 *D NOR2BX1
*I *842:D I *C 48.865 34.945 *L 0.0016 *D DFFQX1

*CAP
1 *864:Y 3.67999e-05
2 *842:D 3.67999e-05
3 *429:2 3.9361e-05
4 *429:3 9.07002e-05
5 *429:4 9.16111e-05
6 *429:5 5.55086e-05
7 *429:6 0.00012488
8 *429:7 5.48302e-05
9 *429:8 0.00012471
10 *429:9 4.28405e-05
11 *429:10 7.96099e-05
12 *429:11 4.36904e-05
13 *429:12 7.86991e-05
14 *429:13 3.9361e-05

*RES
1 *429:13 *864:Y 1.39999998
2 *429:12 *429:13 0.124286
3 *429:10 *429:12 0.372858
4 *429:11 *429:10 1.39999998
5 *429:9 *429:11 0.372858
6 *429:8 *429:9 0.124286
7 *429:6 *429:8 1.11857
8 *429:6 *429:7 0.124286
9 *429:5 *429:7 0.372858
10 *429:4 *429:5 1.39999998
11 *429:3 *429:4 0.745715
12 *429:2 *429:3 0.124286
13 *842:D *429:2 1.39999998
*END

*D_NET *430 0.000900821

*CONN
*I *863:Y O *C 56.44 39.815 *L 0 *D NOR2BXL
*I *841:D I *C 49.445 40.165 *L 0.0016 *D DFFQX1

*CAP
1 *863:Y 3.67986e-05
2 *841:D 3.67986e-05
3 *430:2 0.00038116
4 *430:3 0.00038116
5 *430:6 3.24482e-05
6 *430:7 3.24482e-05

*RES
1 *430:5 *430:7 0.193074
2 *430:7 *863:Y 1.39999
3 *430:2 *430:7 1.39999
4 *430:3 *430:2 2.98285723
5 *430:6 *841:D 1.39999
6 *430:6 *430:3 1.39999
7 *430:4 *430:6 0.193074
*END

*D_NET *431 0.00582813

*CONN
*I *773:A I *C 16.965 18.995 *L 0.00172 *D CLKBUFX2
*I *862:Y O *C 67.125 21.895 *L 0 *D NOR2BX1

*CAP
1 *773:A 3.67955e-05
2 *862:Y 3.67955e-05
3 *431:2 0.000260892
4 *431:3 0.000260892
5 *431:4 0.000859966
6 *431:5 0.00010553
7 *431:6 0.000859051
8 *431:7 0.00010553
9 *431:8 0.000880765
10 *431:9 3.90692e-05
11 *431:10 0.00088168
12 *431:11 7.06582e-05
13 *431:12 7.18555e-05
14 *431:13 0.000107427
15 *431:14 0.000107427
16 *431:15 4.02127e-05
17 *431:16 4.02127e-05
18 *431:17 0.000197942
19 *431:18 0.000197942
20 *431:10 *28:2 0.00010032
21 *431:8 *28:3 0.00010032
22 *431:6 *28:2 0.00023342
23 *431:4 *28:3 0.000233420001

*RES
1 *431:12 *862:Y 1.40001
2 *431:11 *431:12 0.497135
3 *431:11 *431:16 0.124284
4 *431:15 *431:16 0.248568
5 *431:15 *431:18 0.124284
6 *431:17 *431:18 1.86426
7 *431:14 *431:17 0.124284
8 *431:13 *431:14 0.994271
9 *431:9 *431:13 0.124284
10 *431:10 *431:9 1.40001
11 *431:8 *431:10 9.81858
12 *431:7 *431:8 0.124284
13 *431:5 *431:7 1.11855
14 *431:5 *431:6 0.124284
15 *431:2 *773:A 1.40001
16 *431:4 *431:6 10.5642853
17 *431:3 *431:2 2.36139
18 *431:3 *431:4 1.40001
*END

*D_NET *432 0.00331615

*CONN
*I *780:A I *C 33.495 16.385 *L 0.00172 *D CLKBUFX2
*I *861:Y O *C 58.445 21.895 *L 0 *D NOR2BX1

*CAP
1 *780:A 3.68056e-05
2 *861:Y 3.68056e-05
3 *432:2 0.0004627
4 *432:3 0.000462665
5 *432:4 4.65701e-05
6 *432:5 4.56875e-05
7 *432:6 0.000113834
8 *432:7 0.000113834
9 *432:8 4.62171e-05
10 *432:9 4.71278e-05
11 *432:10 8.91581e-05
12 *432:11 8.91581e-05
13 *432:12 7.82922e-05
14 *432:13 7.82922e-05
15 *432:14 0.00017857
16 *432:15 0.000179453
17 *432:16 5.53602e-05
18 *432:17 5.44847e-05
19 *432:19 0.00018957
20 *432:20 0.00018957
21 *432:21 3.24494e-05
22 *432:2 *39:14 0.00019131
23 *432:3 *39:12 0.00019131
24 *432:4 *39:14 3.677e-05
25 *432:5 *39:12 3.677e-05
26 *432:6 *39:10 3.084e-05
27 *432:7 *39:7 3.084e-05
28 *432:8 *39:10 3.677e-05
29 *432:9 *39:7 3.677e-05
30 *432:10 *39:11 4.908e-05
31 *432:11 *39:9 4.90799937e-05

*RES
1 *432:13 *780:A 1.39997
2 *432:13 *432:12 0.497162
3 *432:9 *432:12 1.39997
4 *432:9 *432:8 0.37285
5 *432:8 *432:7 0.124312
6 *432:7 *432:6 1.11855
7 *432:11 *432:6 0.124312
8 *432:11 *432:10 1.36717
9 *432:10 *432:3 0.124312
10 *432:3 *432:2 5.71714306
11 *432:5 *432:2 0.124312
12 *432:5 *432:4 0.37285
13 *432:19 *432:4 1.39997
14 *432:19 *432:20 1.74002
15 *432:15 *432:20 1.39997
16 *432:15 *432:14 1.36717
17 *432:14 *432:17 0.124312
18 *432:17 *432:16 0.37285
19 *432:21 *432:16 1.39997
20 *432:21 *861:Y 1.39997
21 *432:18 *432:21 0.193055
*END

*D_NET *433 0.00063874

*CONN
*I *860:Y O *C 57.82 29.375 *L 0 *D NOR2BXL
*I *837:D I *C 59.595 26.535 *L 0.0016 *D DFFQX1

*CAP
1 *860:Y 3.67999e-05
2 *837:D 3.67999e-05
3 *433:2 0.00022428
4 *433:3 0.000145581
5 *433:4 5.82885e-05
6 *433:5 0.000136991

*RES
1 *433:4 *837:D 1.39999998
2 *433:4 *433:5 0.372858
3 *433:3 *860:Y 1.39999998
4 *433:2 *433:5 0.745715
5 *433:2 *433:3 0.745715
*END

*D_NET *434 0.000768904

*CONN
*I *859:Y O *C 54.095 44.805 *L 0 *D NOR2BX1
*I *834:D I *C 48.865 45.385 *L 0.0016 *D DFFQX1

*CAP
1 *859:Y 3.67993e-05
2 *834:D 3.67993e-05
3 *434:2 0.00026598
4 *434:3 0.00026598
5 *434:5 3.93603e-05
6 *434:6 4.62193e-05
7 *434:7 4.53102e-05
8 *434:8 3.24525e-05

*RES
1 *434:5 *834:D 1.40001
2 *434:5 *434:7 0.124284
3 *434:6 *434:7 0.248568
4 *434:3 *434:6 1.40001
5 *434:3 *434:2 2.1128571
6 *434:8 *434:2 1.40001
7 *434:8 *859:Y 1.40001
8 *434:4 *434:8 0.193051
*END

*D_NET *435 0.00062592

*CONN
*I *858:Y O *C 54.965 47.995 *L 0 *D NOR2BX1
*I *833:D I *C 56.115 50.315 *L 0.00216 *D DFFHQX1

*CAP
1 *858:Y 3.67988e-05
2 *833:D 3.67988e-05
3 *435:2 0.00017104
4 *435:3 0.00021789
5 *435:4 0.00010512
6 *435:5 5.82702e-05

*RES
1 *435:5 *833:D 1.39999998
2 *435:4 *435:5 0.248572
3 *435:3 *435:4 0.497144
4 *435:2 *435:3 0.745715
5 *858:Y *435:2 1.39999998
*END

*D_NET *436 0.000406999

*CONN
*I *857:Y O *C 64.49 58.205 *L 0 *D NOR2BXL
*I *832:D I *C 65.975 61.045 *L 0.0016 *D DFFQX1

*CAP
1 *857:Y 5.17998e-05
2 *832:D 3.67999e-05
3 *436:2 8.2419668e-05
4 *436:3 8.12501e-05
5 *436:4 4.073e-05
6 *436:5 4.18997e-05
7 *436:6 7.20994e-05

*RES
1 *436:2 *832:D 1.39999998
2 *436:3 *436:2 0.870001
3 *436:4 *436:3 0.124286
4 *436:5 *436:4 0.248572
5 *436:6 *436:5 1.39999998
6 *857:Y *436:6 0.773337
*END

*D_NET *437 0.0013861

*CONN
*I *856:Y O *C 77.855 34.365 *L 0 *D NOR2BX1
*I *845:D I *C 75.255 26.535 *L 0.0016 *D DFFQX1

*CAP
1 *856:Y 2.56597e-05
2 *845:D 3.67996e-05
3 *437:2 4.69189e-05
4 *437:3 4.78304e-05
5 *437:4 0.00013399
6 *437:5 0.00013399
7 *437:6 3.88794e-05
8 *437:7 3.88794e-05
9 *437:8 7.97408e-05
10 *437:9 8.065e-05
11 *437:10 0.00013261
12 *437:11 0.00014896
13 *437:12 0.00014896
14 *437:13 5.68291e-05
15 *437:14 0.00013261
16 *437:15 4.59597e-05
17 *437:16 5.68291e-05

*RES
1 *856:Y *437:15 0.386658
2 *437:16 *437:15 1.39999998
3 *437:13 *437:16 0.372858
4 *437:14 *437:13 1.39999998
5 *437:10 *437:14 1.36714
6 *437:9 *437:10 1.39999998
7 *437:8 *437:9 0.372858
8 *437:8 *437:12 0.124286
9 *437:11 *437:12 1.24286
10 *437:7 *437:11 0.124286
11 *437:3 *845:D 1.39999998
12 *437:6 *437:7 0.248572
13 *437:3 *437:2 0.372858
14 *437:4 *437:6 0.124286
15 *437:5 *437:2 0.124286
16 *437:5 *437:4 0.994287
*END

*D_NET *438 0.000401239

*CONN
*I *788:A I *C 77.285 47.705 *L 0.00172 *D CLKBUFX2
*I *855:Y O *C 76.115 47.995 *L 0 *D NOR2BX1

*CAP
1 *788:A 3.67992e-05
2 *855:Y 1.28203e-05
3 *438:2 4.00999e-05
4 *438:3 4.23292e-05
5 *438:4 7.32591e-05
6 *438:5 8.25e-05
7 *438:6 0.00011343

*RES
1 *438:5 *788:A 1.39999998
2 *438:5 *438:6 0.372858
3 *438:4 *438:6 0.372858
4 *438:3 *438:4 0.248572
5 *438:2 *438:3 1.39999998
6 *855:Y *438:2 0.193329
*END

*D_NET *439 0.00032206

*CONN
*I *854:Y O *C 76.67 52.985 *L 0 *D NOR2BXL
*I *823:D I *C 76.995 50.605 *L 0.0016 *D DFFQX1

*CAP
1 *854:Y 1.28201e-05
2 *823:D 3.67993e-05
3 *439:2 9.977e-05
4 *439:3 4.3679e-05
5 *439:4 9.977e-05
6 *439:5 2.92208e-05

*RES
1 *439:2 *823:D 1.39999998
2 *439:2 *439:4 0.745715
3 *439:3 *439:4 1.39999998
4 *439:3 *439:5 0.193329
5 *854:Y *439:5 0.193329
*END

*D_NET *440 0.000631041

*CONN
*I *853:Y O *C 70.29 58.205 *L 0 *D NOR2BXL
*I *827:D I *C 72.645 61.045 *L 0.0016 *D DFFQX1

*CAP
1 *853:Y 1.33905e-05
2 *827:D 3.67998e-05
3 *440:2 0.000143390098
4 *440:3 0.000143390098
5 *440:4 3.36907e-05
6 *440:5 8.12992e-05
7 *440:6 8.12992e-05
8 *440:7 4.88907e-05
9 *440:8 4.88907e-05

*RES
1 *440:2 *827:D 1.39999998
2 *440:3 *440:2 0.870001
3 *440:5 *440:3 1.39999998
4 *440:6 *440:5 0.870001
5 *440:8 *440:6 1.39999998
6 *440:7 *440:8 0.248572
7 *440:4 *440:7 1.39999998
8 *853:Y *440:4 0.193329
*END

*D_NET *441 0.00025352

*CONN
*I *852:Y O *C 73.55 73.865 *L 0 *D NOR2BXL
*I *824:D I *C 72.355 73.805 *L 0.00216 *D DFFHQX1

*CAP
1 *852:Y 1.28204e-05
2 *824:D 3.68e-05
3 *441:2 5.476e-05
4 *441:3 4.28003e-05
5 *441:4 2.71398e-05
6 *441:5 4.00997e-05
7 *441:6 3.91003e-05

*RES
1 *441:5 *852:Y 0.193329
2 *441:6 *441:5 1.39999998
3 *441:4 *441:6 0.124286
4 *441:3 *441:4 0.124286
5 *441:2 *441:3 0.248572
6 *824:D *441:2 1.39999998
*END

*D_NET *442 0.000635076

*CONN
*I *851:Y O *C 55.86 52.985 *L 0 *D NOR2BXL
*I *831:D I *C 50.605 52.635 *L 0.0016 *D DFFQX1

*CAP
1 *851:Y 3.67993e-05
2 *831:D 3.67993e-05
3 *442:4 3.24499e-05
4 *442:5 0.00024829
5 *442:6 3.24499e-05
6 *442:7 0.00024829

*RES
1 *442:3 *442:6 0.0300056
2 *442:6 *851:Y 1.39999
3 *442:7 *442:6 1.39999
4 *442:5 *442:7 2.2371428
5 *442:4 *831:D 1.39999
6 *442:4 *442:5 1.39999
7 *442:2 *442:4 0.0300056
*END

*D_NET *443 0.00062422

*CONN
*I *850:Y O *C 74.71 65.915 *L 0 *D NOR2BXL
*I *826:D I *C 76.995 68.585 *L 0.00216 *D DFFHQX1

*CAP
1 *850:Y 3.67998e-05
2 *826:D 3.67998e-05
3 *443:2 8.06493e-05
4 *443:3 8.06493e-05
5 *443:4 0.00011579
6 *443:5 7.88701e-05
7 *443:6 0.00011579
8 *443:7 7.88701e-05

*RES
1 *443:7 *826:D 1.39999998
2 *443:5 *443:7 0.621429
3 *443:6 *443:5 1.39999998
4 *443:4 *443:6 0.994287
5 *443:3 *443:4 1.39999998
6 *443:2 *443:3 0.372858
7 *850:Y *443:2 1.39999998
*END

*D_NET *444 0.000682179

*CONN
*I *849:Y O *C 71.45 68.645 *L 0 *D NOR2BXL
*I *825:D I *C 74.095 71.485 *L 0.0016 *D DFFQX1

*CAP
1 *849:Y 3.68002e-05
2 *825:D 3.68002e-05
3 *444:2 9.87391e-05
4 *444:3 9.87391e-05
5 *444:4 0.00013342
6 *444:5 7.21305e-05
7 *444:6 0.00013342
8 *444:7 7.21305e-05

*RES
1 *444:7 *825:D 1.39999998
2 *444:5 *444:7 0.497144
3 *444:6 *444:5 1.39999998
4 *444:4 *444:6 1.11857
5 *444:3 *444:4 1.39999998
6 *444:2 *444:3 0.621429
7 *849:Y *444:2 1.39999998
*END

*D_NET *445 0.00065088

*CONN
*I *822:Y O *C 54.7 29.375 *L 0 *D NOR2BXL
*I *810:D I *C 55.245 24.505 *L 0.0016 *D DFFQX1

*CAP
1 *822:Y 3.67992e-05
2 *810:D 3.67992e-05
3 *445:2 0.00014312
4 *445:3 0.000144029648
5 *445:4 5.58295e-05
6 *445:5 5.61196e-05
7 *445:6 8.96902e-05
8 *445:7 8.84903e-05

*RES
1 *445:6 *810:D 1.39999998
2 *445:6 *445:7 0.621429
3 *445:4 *445:7 0.124286
4 *445:4 *445:5 0.372858
5 *445:3 *822:Y 1.39999998
6 *445:2 *445:5 0.124286
7 *445:2 *445:3 0.994287
*END

*D_NET *446 0.000561777

*CONN
*I *821:Y O *C 67.715 47.415 *L 0 *D NOR2XL
*I *816:A I *C 69.455 44.805 *L 0.00264 *D NAND3X1

*CAP
1 *821:Y 3.67977e-05
2 *816:A 3.67977e-05
3 *446:2 0.00017666957
4 *446:3 9.79682e-05
5 *446:4 6.74194e-05
6 *446:5 0.000146121

*RES
1 *446:4 *816:A 1.39999998
2 *446:4 *446:5 0.497144
3 *446:3 *821:Y 1.39999998
4 *446:2 *446:5 0.745715
5 *446:2 *446:3 0.621429
*END

*D_NET *447 0.000719659

*CONN
*I *820:Y O *C 64.815 48.285 *L 0 *D NOR4X1
*I *816:C I *C 68.875 44.805 *L 0.00285 *D NAND3X1

*CAP
1 *820:Y 3.68008e-05
2 *816:C 3.68008e-05
3 *447:2 0.000104899375
4 *447:3 0.000104899375
5 *447:4 4.44792e-05
6 *447:5 4.44792e-05
7 *447:6 7.28301e-05
8 *447:7 0.000100821
9 *447:8 7.19802e-05
10 *447:9 0.000101669

*RES
1 *447:5 *816:C 1.39999998
2 *447:5 *447:4 0.248572
3 *447:9 *447:4 1.39999998
4 *447:7 *447:9 0.994287
5 *447:7 *447:8 0.124286
6 *447:6 *447:8 0.621429
7 *447:2 *820:Y 1.39999998
8 *447:3 *447:6 1.39999998
9 *447:3 *447:2 0.497144
*END

*D_NET *448 0.00372809

*CONN
*I *819:Y O *C 66.83 31.8425 *L 0 *D OR4XL
*I *814:D I *C 64.235 55.245 *L 0.00286 *D NOR4BX1

*CAP
1 *819:Y 3.67975e-05
2 *814:D 3.67975e-05
3 *448:2 6.94001e-05
4 *448:3 6.94001e-05
5 *448:4 0.00014475
6 *448:5 0.00014475
7 *448:6 0.000119752
8 *448:7 0.000119752
9 *448:8 0.00043225
10 *448:9 0.000431373
11 *448:10 4.76408e-05
12 *448:11 4.85181e-05
13 *448:14 3.24509e-05
14 *448:15 3.3803e-05
15 *448:6 *65:12 6.641e-05
16 *448:7 *65:13 6.641e-05
17 *448:8 *65:14 5.922e-05
18 *448:9 *65:15 5.922e-05
19 *448:8 *65:16 0.00016778
20 *448:9 *65:17 0.000167779993
21 *448:6 *370:16 4.909e-05
22 *448:7 *370:17 4.909e-05
23 *448:8 *370:16 0.00054213
24 *448:9 *370:17 0.00054213
25 *448:8 *370:10 8.215e-05
26 *448:9 *370:11 8.215e-05
27 *448:10 *370:14 1.355e-05
28 *448:11 *370:15 1.35500593e-05

*RES
1 *448:2 *814:D 1.40002
2 *448:3 *448:2 0.497128
3 *448:5 *448:3 1.40002
4 *448:5 *448:4 1.11854
5 *448:8 *448:4 1.40002
6 *448:9 *448:8 7.70571423
7 *448:9 *448:6 0.124282
8 *448:7 *448:6 1.73995
9 *448:10 *448:7 0.124282
10 *448:11 *448:10 0.372846
11 *448:15 *448:11 1.40002
12 *448:13 *448:15 0.193066
13 *448:14 *448:15 1.40002
14 *448:14 *819:Y 1.40002
15 *448:12 *448:14 0.0299829
*END

*D_NET *449 0.00213175

*CONN
*I *818:Y O *C 68.585 27.405 *L 0 *D NOR4X1
*I *816:B I *C 69.165 44.515 *L 0.00285 *D NAND3X1

*CAP
1 *818:Y 3.67977e-05
2 *816:B 3.67977e-05
3 *449:2 5.58963e-05
4 *449:3 5.58963e-05
5 *449:4 0.000177837
6 *449:5 0.000177837
7 *449:6 6.62796e-05
8 *449:7 6.62796e-05
9 *449:8 0.00036683
10 *449:9 0.00036683
11 *449:11 3.37975e-05
12 *449:8 *368:11 0.00011069
13 *449:9 *368:12 0.000110689998
14 *449:8 *364:17 0.00011118
15 *449:9 *364:18 0.000111179999
16 *449:4 *359:5 0.00012346
17 *449:5 *359:6 0.000123459994

*RES
1 *449:5 *818:Y 1.40002
2 *449:5 *449:4 1.86431
3 *449:7 *449:4 1.40002
4 *449:7 *449:6 0.372846
5 *449:2 *816:B 1.40002
6 *449:9 *449:6 1.40002
7 *449:3 *449:2 0.372846
8 *449:9 *449:8 5.21999979
9 *449:11 *449:3 1.40002
10 *449:11 *449:8 1.40002
11 *449:10 *449:11 0.0300284
*END

*D_NET *450 0.000421041

*CONN
*I *817:Y O *C 66.555 63.945 *L 0 *D NOR4X1
*I *813:C I *C 64.525 63.655 *L 0.00163 *D NAND4BXL

*CAP
1 *817:Y 2.566e-05
2 *813:C 3.68005e-05
3 *450:2 6.071e-05
4 *450:3 0.00010652
5 *450:4 4.59596e-05
6 *450:5 4.97906e-05
7 *450:6 9.56006e-05

*RES
1 *450:4 *817:Y 0.386658
2 *450:5 *450:4 1.39999998
3 *450:5 *450:6 0.372858
4 *450:3 *450:6 0.497144
5 *450:2 *450:3 0.372858
6 *813:C *450:2 1.39999998
*END

*D_NET *451 0.000651502

*CONN
*I *816:Y O *C 68.585 45.385 *L 0 *D NAND3X1
*I *815:C I *C 64.525 42.485 *L 0.00278 *D NOR3X1

*CAP
1 *816:Y 1.28191e-05
2 *815:C 3.68005e-05
3 *451:2 4.34915e-05
4 *451:3 4.34915e-05
5 *451:4 7.28618e-05
6 *451:5 7.28618e-05
7 *451:6 0.00014814
8 *451:7 0.00014814
9 *451:8 4.36813e-05
10 *451:9 2.92189e-05

*RES
1 *451:9 *816:Y 0.193335
2 *451:8 *451:9 0.193335
3 *451:2 *451:8 1.39999
4 *451:3 *451:2 0.24856
5 *451:6 *451:3 1.39999
6 *451:7 *451:6 1.61571431
7 *451:4 *451:7 1.39999
8 *451:5 *451:4 0.497145
9 *815:C *451:5 1.39999
*END

*D_NET *452 0.0017032

*CONN
*I *815:Y O *C 64.235 43.065 *L 0 *D NOR3X1
*I *814:AN I *C 65.975 55.535 *L 0.00176 *D NOR4BX1

*CAP
1 *815:Y 3.67996e-05
2 *814:AN 3.67996e-05
3 *452:2 0.000440141
4 *452:3 0.00044105
5 *452:4 7.57393e-05
6 *452:5 7.57393e-05
7 *452:6 0.000190809
8 *452:7 0.0001899
9 *452:8 0.000108111
10 *452:9 0.000108111

*RES
1 *452:4 *814:AN 1.40002
2 *452:5 *452:4 0.745695
3 *452:9 *452:5 1.40002
4 *452:8 *452:9 0.869985
5 *452:3 *815:Y 1.40002
6 *452:6 *452:8 1.40002
7 *452:3 *452:2 2.73428583
8 *452:7 *452:6 1.8643
9 *452:7 *452:2 0.12429
*END

*D_NET *453 0.000784104

*CONN
*I *814:Y O *C 64.235 56.115 *L 0 *D NOR4BX1
*I *813:D I *C 64.815 63.655 *L 0.00174 *D NAND4BXL

*CAP
1 *814:Y 2.56621e-05
2 *813:D 3.68023e-05
3 *453:2 0.00033784
4 *453:3 0.00033784
5 *453:4 4.59629e-05

*RES
1 *453:2 *813:D 1.39999
2 *453:3 *453:2 3.23142862
3 *453:4 *453:3 1.39999
4 *814:Y *453:4 0.386671
*END

*D_NET *454 0.000609131

*CONN
*I *813:Y O *C 64.525 63.075 *L 0 *D NAND4BXL
*I *812:B I *C 60.465 63.365 *L 0.00171 *D NOR2XL

*CAP
1 *813:Y 3.68018e-05
2 *812:B 3.68018e-05
3 *454:2 0.00020196
4 *454:3 0.00020196
5 *454:5 4.95817e-05
6 *454:6 4.95817e-05
7 *454:7 3.24504e-05

*RES
1 *454:5 *812:B 1.4
2 *454:5 *454:6 0.248571
3 *454:3 *454:6 1.4
4 *454:3 *454:2 1.98857141
5 *454:7 *454:2 1.4
6 *454:7 *813:Y 1.4
7 *454:4 *454:7 0.193074
*END

*D_NET *455 0.000746449

*CONN
*I *812:Y O *C 60.755 63.075 *L 0 *D NOR2XL
*I *811:A1 I *C 57.275 63.945 *L 0.00163 *D AO21X1

*CAP
1 *812:Y 3.67993e-05
2 *811:A1 3.67993e-05
3 *455:2 7.73597e-05
4 *455:3 7.73597e-05
5 *455:5 0.00024284
6 *455:6 3.24491e-05
7 *455:7 0.00024284

*RES
1 *455:2 *811:A1 1.39999
2 *455:3 *455:2 0.372857
3 *455:5 *455:3 1.39999
4 *455:5 *455:7 1.49142861
5 *455:6 *455:7 1.39999
6 *455:6 *812:Y 1.39999
7 *455:4 *455:6 0.193051
*END

*D_NET *456 0.0002604

*CONN
*I *933:Y O *C 59.015 60.465 *L 0 *D AOI2BB1X1
*I *869:AN I *C 60.175 60.755 *L 0.00174 *D NOR2BXL

*CAP
1 *933:Y 1.28201e-05
2 *869:AN 1.28201e-05
3 *456:2 2.92199e-05
4 *456:3 5.53605e-05
5 *456:4 6.20194e-05
6 *456:5 8.816e-05

*RES
1 *456:4 *869:AN 0.19333
2 *456:4 *456:5 0.579999983
3 *456:3 *456:5 0.579999983
4 *456:2 *456:3 0.19333
5 *933:Y *456:2 0.19333
*END

*D_NET *457 0.00027408

*CONN
*I *925:Y O *C 56.405 68.295 *L 0 *D OA21XL
*I *870:AN I *C 54.955 68.585 *L 0.00174 *D NOR2BXL

*CAP
1 *925:Y 2.566e-05
2 *870:AN 3.68e-05
3 *457:2 5.476e-05
4 *457:3 2.80698e-05
5 *457:4 4.37295e-05
6 *457:5 4.59596e-05
7 *457:6 3.91003e-05

*RES
1 *457:5 *925:Y 0.386658
2 *457:6 *457:5 1.39999998
3 *457:3 *457:6 0.124286
4 *457:3 *457:4 0.124286
5 *457:2 *457:4 0.248572
6 *870:AN *457:2 1.39999998
*END

*D_NET *458 0.00029786

*CONN
*I *910:Y O *C 56.695 70.615 *L 0 *D OAI21X1
*I *871:AN I *C 54.955 71.195 *L 0.00174 *D NOR2BXL

*CAP
1 *910:Y 3.84799e-05
2 *871:AN 3.67999e-05
3 *458:2 5.476e-05
4 *458:3 4.28004e-05
5 *458:4 2.71401e-05
6 *458:5 5.878e-05
7 *458:6 3.90997e-05

*RES
1 *458:5 *910:Y 0.580008
2 *458:6 *458:5 1.39999998
3 *458:4 *458:6 0.124286
4 *458:3 *458:4 0.124286
5 *458:2 *458:3 0.248572
6 *871:AN *458:2 1.39999998
*END

*D_NET *459 0.000779669

*CONN
*I *920:Y O *C 63.945 68.295 *L 0 *D OA21XL
*I *865:AN I *C 68.295 71.195 *L 0.00174 *D NOR2BXL

*CAP
1 *920:Y 3.68015e-05
2 *865:AN 3.68015e-05
3 *459:2 0.00021238
4 *459:3 0.00021238
5 *459:5 3.24492e-05
6 *459:6 0.00012443
7 *459:7 0.00012443

*RES
1 *459:7 *865:AN 1.4
2 *459:6 *459:7 0.994282
3 *459:2 *459:6 1.4
4 *459:3 *459:2 1.74000001
5 *459:5 *459:3 1.4
6 *459:5 *920:Y 1.4
7 *459:4 *459:5 0.193047
*END

*D_NET *460 0.00127594

*CONN
*I *781:A I *C 76.995 73.515 *L 0.00283 *D CLKBUFX4
*I *903:Y O *C 65.975 74.385 *L 0 *D OAI21X1

*CAP
1 *781:A 3.67996e-05
2 *903:Y 2.56584e-05
3 *460:4 4.59591e-05
4 *460:5 3.24503e-05
5 *460:6 8.03003e-05
6 *460:7 9.60586e-05
7 *460:8 0.00025818
8 *460:9 0.000212832
9 *460:10 0.00025818
10 *460:11 3.24503e-05
11 *460:12 0.000197069

*RES
1 *460:11 *781:A 1.39999
2 *460:3 *460:11 0.193074
3 *460:12 *460:11 1.39999
4 *460:9 *460:12 1.86427
5 *460:9 *460:10 0.248579
6 *460:8 *460:10 2.2371428
7 *460:7 *460:8 0.248579
8 *460:6 *460:7 0.372869
9 *903:Y *460:4 0.38666
10 *460:5 *460:6 1.39999
11 *460:5 *460:4 1.39999
12 *460:2 *460:5 0.193074
*END

*D_NET *461 0.000431319

*CONN
*I *915:Y O *C 71.775 66.265 *L 0 *D OA21XL
*I *849:AN I *C 70.615 68.585 *L 0.00174 *D NOR2BXL

*CAP
1 *915:Y 3.67999e-05
2 *849:AN 3.67999e-05
3 *461:2 0.00012056
4 *461:3 7.47496e-05
5 *461:4 5.83015e-05
6 *461:5 0.00010411

*RES
1 *461:4 *915:Y 1.39999998
2 *461:3 *849:AN 1.39999998
3 *461:4 *461:5 0.372858
4 *461:2 *461:3 0.621429
5 *461:2 *461:5 0.497144
*END

*D_NET *462 0.000391239

*CONN
*I *785:A I *C 77.285 65.975 *L 0.00172 *D CLKBUFX2
*I *896:Y O *C 76.125 63.945 *L 0 *D OAI21X1

*CAP
1 *785:A 3.67996e-05
2 *896:Y 3.67996e-05
3 *462:2 6.07196875e-05
4 *462:3 6.07196875e-05
5 *462:4 4.68506e-05
6 *462:5 4.68506e-05
7 *462:6 5.12497e-05
8 *462:7 5.12497e-05

*RES
1 *462:7 *785:A 1.39999998
2 *462:6 *462:7 0.372858
3 *462:2 *462:6 1.39999998
4 *462:3 *462:2 0.497144
5 *462:4 *462:3 1.39999998
6 *462:5 *462:4 0.497144
7 *896:Y *462:5 1.39999998
*END

*D_NET *463 0.00080037

*CONN
*I *914:Y O *C 66.555 57.855 *L 0 *D OA21XL
*I *853:AN I *C 69.455 58.145 *L 0.00174 *D NOR2BXL

*CAP
1 *914:Y 3.68007e-05
2 *853:AN 1.28208e-05
3 *463:2 0.00022269
4 *463:3 0.00022269
5 *463:5 3.24478e-05
6 *463:6 7.54193e-05
7 *463:7 6.20209e-05
8 *463:8 4.65191e-05
9 *463:9 4.44802e-05
10 *463:10 4.44802e-05

*RES
1 *853:AN *463:7 0.193339
2 *463:6 *463:7 0.579991
3 *463:6 *463:8 0.579991
4 *463:9 *463:8 1.4
5 *463:9 *463:10 0.248564
6 *463:2 *463:10 1.4
7 *463:3 *463:2 1.74000001
8 *463:5 *463:3 1.4
9 *463:5 *914:Y 1.4
10 *463:4 *463:5 0.193047
*END

*D_NET *464 0.000831358

*CONN
*I *787:A I *C 76.705 55.535 *L 0.00172 *D CLKBUFX2
*I *882:Y O *C 73.805 52.635 *L 0 *D OA21XL

*CAP
1 *787:A 3.67995e-05
2 *882:Y 3.89591e-05
3 *464:2 5.88904e-05
4 *464:3 5.88904e-05
5 *464:4 5.926e-05
6 *464:5 0.000182149375
7 *464:6 0.000182149375
8 *464:7 0.00010713
9 *464:8 0.00010713

*RES
1 *464:2 *787:A 1.39999998
2 *464:3 *464:2 0.372858
3 *464:8 *464:3 1.39999998
4 *464:7 *464:8 0.870001
5 *464:6 *464:7 1.39999998
6 *464:5 *464:6 0.870001
7 *464:4 *464:5 1.39999998
8 *882:Y *464:4 0.580008
*END

*D_NET *465 0.000485468

*CONN
*I *875:Y O *C 72.645 48.285 *L 0 *D OAI21X1
*I *855:AN I *C 75.255 47.705 *L 0.00174 *D NOR2BX1

*CAP
1 *875:Y 3.67993e-05
2 *855:AN 3.67993e-05
3 *465:2 5.4269e-05
4 *465:3 5.4269e-05
5 *465:5 3.2449e-05
6 *465:6 0.00013544
7 *465:7 0.00013544

*RES
1 *465:3 *855:AN 1.39999998
2 *465:3 *465:2 0.248572
3 *465:7 *465:2 1.39999998
4 *465:6 *465:7 1.11857
5 *465:5 *465:6 1.39999998
6 *465:5 *875:Y 1.39999998
7 *465:4 *465:5 0.193051
*END

*D_NET *466 0.000466011

*CONN
*I *786:A I *C 58.435 52.925 *L 0.00172 *D CLKBUFX2
*I *908:Y O *C 61.335 53.505 *L 0 *D OA21X2

*CAP
1 *786:A 3.67992e-05
2 *908:Y 3.67992e-05
3 *466:2 0.00014839
4 *466:3 0.00014839
5 *466:6 3.15913e-05
6 *466:7 3.15913e-05
7 *466:8 3.24495e-05

*RES
1 *466:5 *466:8 0.193051
2 *466:8 *908:Y 1.39999998
3 *466:2 *466:8 1.39999998
4 *466:3 *466:2 1.24286
5 *466:7 *466:3 1.39999998
6 *466:6 *786:A 1.39999998
7 *466:6 *466:7 0.124286
8 *466:4 *466:6 0.0643219
*END

*D_NET *467 0.00043939

*CONN
*I *782:A I *C 63.075 55.535 *L 0.00172 *D CLKBUFX2
*I *891:Y O *C 61.915 58.725 *L 0 *D OAI21X1

*CAP
1 *782:A 3.67999e-05
2 *891:Y 3.8481e-05
3 *467:2 5.87803e-05
4 *467:3 3.90991e-05
5 *467:4 0.0001337
6 *467:5 0.000132529

*RES
1 *467:4 *782:A 1.39999998
2 *467:4 *467:5 0.994287
3 *467:3 *467:5 0.124286
4 *467:2 *467:3 1.39999998
5 *891:Y *467:2 0.580008
*END

*D_NET *468 0.000494938

*CONN
*I *783:A I *C 62.495 47.705 *L 0.00172 *D CLKBUFX2
*I *902:Y O *C 59.885 47.705 *L 0 *D OA21X4

*CAP
1 *783:A 3.67998e-05
2 *902:Y 3.67998e-05
3 *468:2 0.00017822
4 *468:3 0.00017822
5 *468:6 3.24486e-05
6 *468:7 3.24486e-05

*RES
1 *468:7 *783:A 1.39999998
2 *468:5 *468:7 0.193051
3 *468:2 *468:7 1.39999998
4 *468:3 *468:2 1.11857
5 *468:6 *468:3 1.39999998
6 *468:6 *902:Y 1.39999998
7 *468:4 *468:6 0.193051
*END

*D_NET *469 0.000930643

*CONN
*I *784:A I *C 63.655 45.095 *L 0.00172 *D CLKBUFX2
*I *888:Y O *C 59.885 44.515 *L 0 *D OAI21X1

*CAP
1 *784:A 3.68019e-05
2 *888:Y 3.68019e-05
3 *469:2 8.33192e-05
4 *469:3 8.33192e-05
5 *469:4 3.98307e-05
6 *469:5 3.98307e-05
7 *469:6 0.00030537
8 *469:7 0.00030537

*RES
1 *469:3 *784:A 1.39999
2 *469:3 *469:2 0.372865
3 *469:7 *469:2 1.39999
4 *469:6 *469:7 1.61571431
5 *469:5 *469:6 1.39999
6 *469:4 *469:5 0.24856
7 *888:Y *469:4 1.39999
*END

*D_NET *470 0.000665079

*CONN
*I *754:A I *C 60.755 32.335 *L 0.00155 *D DLY2X1
*I *880:S O *C 58.22 28.93 *L 0 *D ADDHX1

*CAP
1 *754:A 3.67993e-05
2 *880:S 3.67993e-05
3 *470:2 6.68001e-05
4 *470:3 6.68001e-05
5 *470:4 0.00014906
6 *470:5 0.00014906
7 *470:6 7.98808e-05
8 *470:7 7.98808e-05

*RES
1 *470:7 *754:A 1.39999998
2 *470:6 *470:7 0.621429
3 *470:4 *470:6 1.39999998
4 *470:5 *470:4 1.11857
5 *470:2 *470:5 1.39999998
6 *470:3 *470:2 0.621429
7 *880:S *470:3 1.39999998
*END

*D_NET *471 0.000799379

*CONN
*I *753:A I *C 62.495 21.895 *L 0.00155 *D DLY2X1
*I *877:Y O *C 56.985 24.505 *L 0 *D OA21XL

*CAP
1 *753:A 3.68005e-05
2 *877:Y 3.68005e-05
3 *471:2 0.0002349
4 *471:3 0.0002349
5 *471:4 6.10987e-05
6 *471:5 6.10987e-05
7 *471:6 6.6891e-05
8 *471:7 6.6891e-05

*RES
1 *471:6 *753:A 1.4
2 *471:6 *471:7 0.497135
3 *471:2 *471:7 1.4
4 *471:3 *471:2 2.4857142
5 *471:5 *877:Y 1.4
6 *471:4 *471:3 1.4
7 *471:4 *471:5 0.372842
*END

*D_NET *472 0.00047698

*CONN
*I *873:Y O *C 68.295 23.635 *L 0 *D OAI21X1
*I *862:AN I *C 66.265 21.605 *L 0.00174 *D NOR2BX1

*CAP
1 *873:Y 3.67996e-05
2 *862:AN 3.67996e-05
3 *472:2 5.01001e-05
4 *472:3 5.01001e-05
5 *472:4 9.685e-05
6 *472:5 5.47405e-05
7 *472:6 9.685e-05
8 *472:7 5.47405e-05

*RES
1 *472:7 *873:Y 1.39999998
2 *472:5 *472:7 0.372858
3 *472:6 *472:5 1.39999998
4 *472:4 *472:6 0.870001
5 *472:2 *472:4 1.39999998
6 *472:3 *472:2 0.497144
7 *862:AN *472:3 1.39999998
*END

*D_NET *473 0.00162303

*CONN
*I *779:A I *C 66.555 47.705 *L 0.00172 *D CLKBUFX2
*I *894:Y O *C 58.725 40.165 *L 0 *D OA21XL

*CAP
1 *779:A 3.67979e-05
2 *894:Y 3.67979e-05
3 *473:2 0.00036936
4 *473:3 0.00036936
5 *473:4 0.000188211
6 *473:5 0.00018736
7 *473:6 0.00013207
8 *473:7 0.000132921
9 *473:8 6.49388e-05
10 *473:9 6.58519e-05
11 *473:10 3.93567e-05

*RES
1 *473:2 *779:A 1.4
2 *473:3 *473:2 2.4857142
3 *473:4 *473:3 1.4
4 *473:5 *473:4 1.98858
5 *473:6 *473:5 0.124293
6 *473:7 *473:6 1.24286
7 *473:10 *473:7 1.4
8 *473:8 *473:10 0.124293
9 *473:9 *473:8 0.621429
10 *894:Y *473:9 1.4
*END

*D_NET *474 0.00254946

*CONN
*I *774:A I *C 44.805 52.925 *L 0.00172 *D CLKBUFX2
*I *883:Y O *C 54.665 39.295 *L 0 *D OAI21X1

*CAP
1 *774:A 3.67991e-05
2 *883:Y 3.67991e-05
3 *474:2 0.000404228867
4 *474:3 0.00040355
5 *474:4 8.13084e-05
6 *474:5 0.000195154
7 *474:6 8.04017e-05
8 *474:7 0.00024015
9 *474:8 0.000241057
10 *474:9 0.000124288
11 *474:10 0.000124288
12 *474:11 0.000194469
13 *474:12 0.000193482
14 *474:13 0.000193482

*RES
1 *474:12 *883:Y 1.39998
2 *474:8 *774:A 1.39998
3 *474:12 *474:13 1.74001
4 *474:7 *474:8 2.11286
5 *474:2 *474:13 1.39998
6 *474:7 *474:10 0.124295
7 *474:3 *474:2 2.6099999
8 *474:9 *474:10 1.11858
9 *474:3 *474:11 0.124295
10 *474:6 *474:9 0.124295
11 *474:5 *474:11 1.61572
12 *474:4 *474:6 0.372846
13 *474:4 *474:5 1.39998
*END

*D_NET *475 0.00289124

*CONN
*I *777:A I *C 72.355 55.535 *L 0.00172 *D CLKBUFX2
*I *890:Y O *C 77.285 40.165 *L 0 *D OA21XL

*CAP
1 *777:A 3.68007e-05
2 *890:Y 2.5817e-05
3 *475:2 0.00031744
4 *475:3 0.00031744
5 *475:5 3.24491e-05
6 *475:6 4.61212e-05
7 *475:7 0.000670676
8 *475:8 0.000685541094
9 *475:9 9.46588e-05
10 *475:10 8.01812e-05
11 *475:11 0.000292251
12 *475:12 0.000291864

*RES
1 *890:Y *475:6 0.386684
2 *475:7 *475:6 1.4
3 *475:7 *475:8 3.60428572
4 *475:8 *475:11 0.248587
5 *475:11 *475:12 2.60999
6 *475:9 *475:12 0.248587
7 *475:9 *475:10 0.37288
8 *475:2 *475:10 1.4
9 *475:3 *475:2 2.36141
10 *475:5 *777:A 1.4
11 *475:5 *475:3 1.4
12 *475:4 *475:5 0.19304
*END

*D_NET *476 0.00316536

*CONN
*I *775:A I *C 76.125 71.195 *L 0.00172 *D CLKBUFX2
*I *879:Y O *C 71.775 43.065 *L 0 *D OAI21X1

*CAP
1 *775:A 3.68062e-05
2 *879:Y 3.68062e-05
3 *476:2 5.66202e-05
4 *476:3 5.57154e-05
5 *476:4 0.00022231
6 *476:5 0.00022231
7 *476:6 3.23895e-05
8 *476:7 3.23895e-05
9 *476:8 0.000210302
10 *476:9 0.000210302
11 *476:10 0.00100504
12 *476:11 0.00100504
13 *476:13 3.93673e-05

*RES
1 *476:13 *879:Y 1.39996
2 *476:13 *476:3 0.124269
3 *476:3 *476:2 0.372806
4 *476:5 *476:2 1.39996
5 *476:8 *775:A 1.39996
6 *476:5 *476:4 1.86432
7 *476:9 *476:8 2.11286
8 *476:11 *476:4 1.39996
9 *476:7 *476:9 1.39996
10 *476:11 *476:10 9.56999969
11 *476:7 *476:6 0.124269
12 *476:6 *476:10 1.39996
13 *476:12 *476:6 0.182825
*END

*D_NET *477 0.0024134

*CONN
*I *778:A I *C 70.905 45.095 *L 0.00172 *D CLKBUFX2
*I *895:Y O *C 77.285 29.725 *L 0 *D OA21XL

*CAP
1 *778:A 3.67988e-05
2 *895:Y 6.57013e-05
3 *477:2 0.00047916
4 *477:3 0.000463535
5 *477:5 3.24485e-05
6 *477:6 0.000361964
7 *477:7 8.5998e-05
8 *477:8 5.8302e-05
9 *477:9 5.70956e-05
10 *477:10 7.27349e-05
11 *477:11 5.8302e-05
12 *477:12 0.000361964
13 *477:13 0.000139701
14 *477:14 0.000139701

*RES
1 *895:Y *477:7 0.966643
2 *477:8 *477:7 1.4
3 *477:8 *477:9 0.372876
4 *477:9 *477:13 0.124269
5 *477:13 *477:14 1.24283
6 *477:14 *477:3 0.124269
7 *477:3 *477:2 4.5985713
8 *477:10 *477:2 0.248537
9 *477:10 *477:11 0.372876
10 *477:12 *477:11 1.4
11 *477:6 *477:12 3.35574
12 *477:5 *778:A 1.4
13 *477:5 *477:6 1.4
14 *477:4 *477:5 0.193034
*END

*D_NET *478 0.00513933

*CONN
*I *776:A I *C 73.805 65.975 *L 0.00172 *D CLKBUFX2
*I *884:Y O *C 77.865 22.185 *L 0 *D OAI21X1

*CAP
1 *776:A 3.6803e-05
2 *884:Y 3.6803e-05
3 *478:2 0.000213103
4 *478:3 0.000213103
5 *478:4 0.000703942
6 *478:5 0.0007042
7 *478:6 0.000163029
8 *478:7 0.000163029
9 *478:8 0.000186164
10 *478:9 0.000187077
11 *478:10 6.91359e-05
12 *478:11 6.91359e-05
13 *478:12 0.000253205
14 *478:13 0.000369438
15 *478:14 0.000164834
16 *478:15 0.000164834
17 *478:16 0.000128461
18 *478:17 0.000152574
19 *478:18 0.000128461
20 *478:19 0.000148082
21 *478:20 5.10084e-05
22 *478:21 5.21797e-05
23 *478:22 0.000152574
24 *478:8 *479:116 3.769e-05
25 *478:9 *479:117 3.769e-05
26 *478:10 *479:82 1.481e-05
27 *478:11 *479:83 1.481e-05
28 *478:8 *479:64 3.769e-05
29 *478:9 *479:65 3.769e-05
30 *478:12 *479:84 1.975e-05
31 *478:13 *479:85 1.975e-05
32 *478:12 *479:118 2.512e-05
33 *478:13 *479:66 2.512e-05
34 *478:12 *479:66 0.0001126
35 *478:13 *479:67 0.0001126
36 *478:12 *479:67 2.489e-05
37 *478:13 *479:68 2.489e-05
38 *478:13 *479:82 4.154e-05
39 *478:19 *479:83 4.15400103e-05

*RES
1 *478:9 *884:Y 1.39997
2 *478:9 *478:8 2.36141
3 *478:11 *478:8 0.124312
4 *478:11 *478:10 0.870011
5 *478:19 *478:10 0.124312
6 *478:19 *478:13 1.74002
7 *478:13 *478:12 3.10711
8 *478:12 *478:15 0.124312
9 *478:15 *478:14 0.870011
10 *478:3 *478:14 0.124312
11 *478:3 *478:2 1.61571
12 *478:2 *478:5 0.124312
13 *478:5 *478:4 5.71714306
14 *478:4 *478:7 0.124312
15 *478:7 *478:6 1.36717
16 *478:20 *478:6 0.124312
17 *478:20 *478:21 0.37285
18 *478:22 *478:21 1.39997
19 *478:18 *776:A 1.39997
20 *478:17 *478:22 1.61571
21 *478:16 *478:18 0.745699
22 *478:16 *478:17 1.39997
*END

*D_NET *479 0.0208208

*CONN
*I *941:C0 I *C 64.815 34.655 *L 0.00171 *D AOI211XL
*I *940:C0 I *C 74.385 55.535 *L 0.00171 *D AOI211XL
*I *872:B I *C 59.885 58.145 *L 0.00171 *D NOR2XL
*I *871:B I *C 54.375 70.905 *L 0.00175 *D NOR2BXL
*I *870:B I *C 54.375 68.875 *L 0.00175 *D NOR2BXL
*I *869:B I *C 59.595 60.465 *L 0.00175 *D NOR2BXL
*I *868:B I *C 77.575 23.925 *L 0.0028 *D NOR2BX1
*I *867:B I *C 74.095 47.995 *L 0.0028 *D NOR2BX1
*I *866:B I *C 77.575 37.555 *L 0.0028 *D NOR2BX1
*I *865:B I *C 67.715 70.905 *L 0.00175 *D NOR2BXL
*I *864:B I *C 54.085 37.555 *L 0.0028 *D NOR2BX1
*I *863:B I *C 56.695 39.585 *L 0.00175 *D NOR2BXL
*I *862:B I *C 66.845 21.895 *L 0.0028 *D NOR2BX1
*I *861:B I *C 58.725 21.895 *L 0.0028 *D NOR2BX1
*I *860:B I *C 57.565 29.145 *L 0.00175 *D NOR2BXL
*I *859:B I *C 54.375 44.805 *L 0.0028 *D NOR2BX1
*I *858:B I *C 55.245 47.995 *L 0.0028 *D NOR2BX1
*I *857:B I *C 64.235 58.435 *L 0.00175 *D NOR2BXL
*I *856:B I *C 77.575 34.365 *L 0.0028 *D NOR2BX1
*I *855:B I *C 75.835 47.995 *L 0.0028 *D NOR2BX1
*I *854:B I *C 76.415 53.215 *L 0.00175 *D NOR2BXL
*I *853:B I *C 70.035 58.435 *L 0.00175 *D NOR2BXL
*I *852:B I *C 73.805 74.095 *L 0.00175 *D NOR2BXL
*I *851:B I *C 56.115 53.215 *L 0.00175 *D NOR2BXL
*I *850:B I *C 74.965 65.685 *L 0.00175 *D NOR2BXL
*I *849:B I *C 71.195 68.875 *L 0.00175 *D NOR2BXL
*I *822:AN I *C 55.535 29.435 *L 0.00174 *D NOR2BXL
*I *811:Y O *C 56.115 63.945 *L 0 *D AO21X1

*CAP
1 *941:C0 3.67963e-05
2 *940:C0 3.67963e-05
3 *872:B 3.67963e-05
4 *871:B 3.67963e-05
5 *870:B 3.67963e-05
6 *869:B 3.67963e-05
7 *868:B 3.67963e-05
8 *867:B 3.67963e-05
9 *866:B 3.67963e-05
10 *865:B 3.67963e-05
11 *864:B 3.67963e-05
12 *863:B 3.67963e-05
13 *862:B 3.67963e-05
14 *861:B 3.67963e-05
15 *860:B 3.67963e-05
16 *859:B 3.67963e-05
17 *858:B 3.67963e-05
18 *857:B 3.67963e-05
19 *856:B 3.67963e-05
20 *855:B 3.67963e-05
21 *854:B 3.67963e-05
22 *853:B 3.67963e-05
23 *852:B 3.67963e-05
24 *851:B 3.67963e-05
25 *850:B 3.67963e-05
26 *849:B 3.67963e-05
27 *822:AN 3.67963e-05
28 *811:Y 6.2462e-05
29 *479:28 0.000185581
30 *479:29 0.000185581
31 *479:30 4.91707e-05
32 *479:31 4.8261e-05
33 *479:32 9.10348e-05
34 *479:33 0.000149303
35 *479:34 0.000132956
36 *479:35 5.92565e-05
37 *479:36 0.000293319
38 *479:37 0.000465799922
39 *479:38 0.000237332
40 *479:39 0.000162609
41 *479:40 0.000142572
42 *479:41 9.97417e-05
43 *479:42 6.55183e-05
44 *479:43 0.000379506
45 *479:44 0.000235
46 *479:45 7.51492e-05
47 *479:46 8.24772e-05
48 *479:47 7.21071e-05
49 *479:48 7.21071e-05
50 *479:49 3.13376e-05
51 *479:50 3.13376e-05
52 *479:51 5.83325e-05
53 *479:52 5.71597e-05
54 *479:53 0.000122451
55 *479:54 0.000106693
56 *479:55 9.46384e-05
57 *479:56 0.00016671
58 *479:57 0.00012164
59 *479:58 0.000259301
60 *479:59 0.000259301
61 *479:60 5.93702e-05
62 *479:61 0.000121896
63 *479:62 0.000372327
64 *479:63 0.000364011
65 *479:64 4.56311e-05
66 *479:65 4.56311e-05
67 *479:66 7.18655e-05
68 *479:67 7.3486e-05
69 *479:68 5.08908e-05
70 *479:69 0.000216392
71 *479:70 0.000216392
72 *479:71 0.000128435
73 *479:72 0.000128435
74 *479:73 8.54908e-05
75 *479:74 0.00015887
76 *479:75 0.000119942
77 *479:76 7.70327e-05
78 *479:77 7.79425e-05
79 *479:78 0.000227722
80 *479:79 0.000243643
81 *479:80 0.000325232
82 *479:81 0.00032418
83 *479:82 0.000190023
84 *479:83 0.00017396
85 *479:84 7.09841e-05
86 *479:85 5.5198e-05
87 *479:86 4.44726e-05
88 *479:87 4.53824e-05
89 *479:88 0.000167918
90 *479:89 8.67844e-05
91 *479:90 7.42821e-05
92 *479:91 7.65423e-05
93 *479:92 5.69323e-05
94 *479:93 0.000415762
95 *479:94 0.000413189
96 *479:95 0.000239585
97 *479:96 0.00024306
98 *479:97 8.49293e-05
99 *479:98 6.71744e-05
100 *479:99 4.58515e-05
101 *479:100 0.000118072
102 *479:101 0.000118072
103 *479:102 0.000118463
104 *479:103 0.000118463
105 *479:104 0.000143653
106 *479:105 0.00013324
107 *479:106 6.36064e-05
108 *479:107 4.59083e-05
109 *479:108 4.59083e-05
110 *479:109 4.36197e-05
111 *479:110 5.49137e-05
112 *479:111 4.33425e-05
113 *479:112 4.33425e-05
114 *479:113 8.11409e-05
115 *479:114 0.000185837
116 *479:115 0.000162715
117 *479:116 4.17646e-05
118 *479:117 4.29586e-05
119 *479:118 3.33491e-05
120 *479:119 5.80127e-05
121 *479:120 8.4048e-05
122 *479:121 6.95626e-05
123 *479:122 0.000143546
124 *479:123 0.000143546
125 *479:124 0.000188737
126 *479:125 0.000188737
127 *479:126 0.000149069
128 *479:127 5.90646e-05
129 *479:128 9.97701e-05
130 *479:129 9.97701e-05
131 *479:130 6.03724e-05
132 *479:131 0.000139822
133 *479:132 0.000203258
134 *479:133 0.000108107
135 *479:134 0.00010928
136 *479:135 6.51132e-05
137 *479:136 6.51132e-05
138 *479:137 0.000104362
139 *479:138 0.000104362
140 *479:139 8.29605e-05
141 *479:140 9.79719e-05
142 *479:141 0.000154101
143 *479:142 0.000185936
144 *479:143 0.000133574
145 *479:144 0.000134455
146 *479:145 0.000169688
147 *479:146 0.000169688
148 *479:153 0.000120652
149 *479:154 3.88789e-05
150 *479:155 5.48e-05
151 *479:156 4.59581e-05
152 *479:157 3.24535e-05
153 *479:158 3.90992e-05
154 *479:159 3.93622e-05
155 *479:160 6.27321e-05
156 *479:161 0.000124057
157 *479:162 3.8623e-05
158 *479:163 5.08979e-05
159 *479:164 3.24535e-05
160 *479:165 0.000298351
161 *479:166 0.000298351
162 *479:167 5.9029e-05
163 *479:168 5.99104e-05
164 *479:169 6.41892e-05
165 *479:170 0.000103487
166 *479:171 6.50705e-05
167 *479:172 3.24535e-05
168 *479:173 3.24535e-05
169 *479:174 0.000103487
170 *479:175 4.21342e-05
171 *479:176 0.000114952
172 *479:177 0.00013039
173 *479:178 0.000130539
174 *479:97 *83:11 1.25e-05
175 *479:98 *83:12 1.25e-05
176 *479:98 *83:11 3.727e-05
177 *479:99 *83:12 3.727e-05
178 *479:109 *83:11 3.611e-05
179 *479:110 *83:12 3.611e-05
180 *479:110 *83:11 3.751e-05
181 *479:111 *83:12 3.751e-05
182 *479:112 *83:11 3.751e-05
183 *479:104 *83:12 3.751e-05
184 *479:104 *83:11 0.00014751
185 *479:105 *83:12 0.00014751
186 *479:100 *83:11 3.838e-05
187 *479:101 *83:12 3.838e-05
188 *479:102 *83:11 4.108e-05
189 *479:103 *83:12 4.108e-05
190 *479:107 *83:10 1.888e-05
191 *479:108 *83:6 1.8880007e-05
192 *479:69 *40:23 8.832e-05
193 *479:70 *40:22 8.83200027e-05
194 *479:69 *404:17 0.00010693
195 *479:70 *404:15 0.00010693
196 *479:69 *404:14 1.369e-05
197 *479:70 *404:13 1.36900045e-05
198 *479:116 *478:8 3.769e-05
199 *479:117 *478:9 3.769e-05
200 *479:82 *478:10 1.481e-05
201 *479:83 *478:11 1.481e-05
202 *479:64 *478:8 3.769e-05
203 *479:65 *478:9 3.769e-05
204 *479:84 *478:12 1.975e-05
205 *479:85 *478:13 1.975e-05
206 *479:118 *478:12 2.512e-05
207 *479:66 *478:13 2.512e-05
208 *479:66 *478:12 0.0001126
209 *479:67 *478:13 0.0001126
210 *479:67 *478:12 2.489e-05
211 *479:68 *478:13 2.489e-05
212 *479:82 *478:13 4.154e-05
213 *479:83 *478:19 4.15400103e-05

*RES
1 *479:50 *941:C0 1.39998
2 *479:148 *479:50 0.0643465
3 *479:50 *479:49 0.124312
4 *479:69 *479:49 1.39998
5 *479:70 *479:69 3.10712
6 *479:139 *863:B 1.39998
7 *479:159 *479:70 1.39998
8 *479:140 *479:139 0.621448
9 *479:75 *479:159 0.124312
10 *479:140 *479:73 0.248568
11 *479:75 *479:74 0.994271
12 *479:74 *479:73 0.497135
13 *479:71 *479:74 1.39998
14 *479:72 *479:71 1.36715
15 *479:30 *864:B 1.39998
16 *479:30 *479:72 1.39998
17 *479:31 *479:30 0.248568
18 *479:31 *479:28 0.124312
19 *479:29 *479:28 1.36715
20 *479:29 *479:141 0.124312
21 *479:142 *479:141 1.24284
22 *479:142 *479:41 0.37288
23 *479:32 *822:AN 1.39998
24 *479:32 *479:41 0.497135
25 *479:33 *479:32 0.37288
26 *479:42 *860:B 1.39998
27 *479:33 *479:43 0.870015
28 *479:43 *479:42 0.37288
29 *479:44 *479:43 1.86429
30 *479:60 *479:44 0.124312
31 *479:61 *479:60 0.621448
32 *479:61 *479:161 0.621448
33 *479:160 *861:B 1.39998
34 *479:160 *479:161 0.497135
35 *479:54 *479:160 1.39998
36 *479:54 *479:53 0.745703
37 *479:53 *479:59 0.248568
38 *479:59 *479:58 2.11285
39 *479:164 *862:B 1.39998
40 *479:149 *479:164 0.19304
41 *479:57 *479:58 0.248568
42 *479:56 *479:164 1.39998
43 *479:57 *479:56 0.621448
44 *479:56 *479:55 0.870015
45 *479:146 *479:55 1.39998
46 *479:65 *868:B 1.39998
47 *479:146 *479:145 1.49141
48 *479:65 *479:64 0.37288
49 *479:63 *479:145 1.39998
50 *479:62 *479:64 1.39998
51 *479:63 *479:62 3.72857141
52 *479:62 *479:175 0.248568
53 *479:117 *479:175 1.39998
54 *479:117 *479:116 0.37288
55 *479:116 *479:177 0.124312
56 *479:177 *479:178 1.24284
57 *479:83 *479:178 0.124312
58 *479:83 *479:82 2.23717
59 *479:68 *479:82 0.248568
60 *479:67 *856:B 1.39998
61 *479:68 *479:67 0.248568
62 *479:66 *866:B 1.39998
63 *479:67 *479:66 1.11858
64 *479:66 *479:118 0.248568
65 *479:118 *479:85 0.124312
66 *479:85 *479:84 0.497135
67 *479:84 *479:79 0.248568
68 *479:79 *479:78 1.86429
69 *479:81 *479:78 0.124312
70 *479:81 *479:80 1.86429
71 *479:172 *855:B 1.39998
72 *479:151 *479:172 0.19304
73 *479:176 *479:80 1.39998
74 *479:88 *479:172 1.39998
75 *479:88 *479:176 0.994271
76 *479:51 *852:B 1.39998
77 *479:89 *479:88 0.745703
78 *479:52 *479:51 0.745703
79 *479:125 *850:B 1.39998
80 *479:77 *867:B 1.39998
81 *479:77 *479:89 1.39998
82 *479:150 *479:77 0.19304
83 *479:173 *854:B 1.39998
84 *479:152 *479:173 0.19304
85 *479:133 *479:52 0.124312
86 *479:125 *479:124 1.49141
87 *479:77 *479:76 0.37288
88 *479:174 *479:173 1.39998
89 *479:128 *865:B 1.39998
90 *479:136 *849:B 1.39998
91 *479:134 *479:133 1.11858
92 *479:130 *479:124 1.39998
93 *479:76 *479:95 0.124312
94 *479:170 *479:174 0.870015
95 *479:129 *479:128 0.745703
96 *479:136 *479:135 0.37288
97 *479:131 *479:134 1.39998
98 *479:131 *479:130 0.621448
99 *479:95 *479:94 1.86429
100 *479:94 *479:170 1.39998
101 *479:127 *479:129 1.39998
102 *479:132 *479:135 1.39998
103 *479:132 *479:131 0.994271
104 *479:93 *940:C0 1.39998
105 *479:94 *479:93 1.11858
106 *479:127 *479:126 0.37288
107 *479:126 *479:132 1.11858
108 *479:93 *479:96 1.61572
109 *479:168 *479:126 1.39998
110 *479:171 *479:96 1.39998
111 *479:167 *479:168 0.37288
112 *479:169 *479:171 0.497135
113 *479:166 *479:167 0.124312
114 *479:169 *479:137 0.124312
115 *479:165 *479:166 2.85856
116 *479:108 *853:B 1.39998
117 *479:138 *479:137 0.994271
118 *479:165 *479:143 0.124312
119 *479:108 *479:107 0.497135
120 *479:106 *479:138 0.124312
121 *479:87 *859:B 1.39998
122 *479:144 *479:143 1.11858
123 *479:97 *479:107 1.39998
124 *479:97 *479:106 0.37288
125 *479:87 *479:86 0.248568
126 *479:98 *479:144 1.39998
127 *479:98 *479:97 0.621448
128 *479:86 *479:154 0.124312
129 *479:99 *479:98 0.37288
130 *479:154 *479:155 0.248568
131 *479:100 *479:99 0.124312
132 *479:155 *479:90 0.248568
133 *479:48 *857:B 1.39998
134 *479:101 *479:100 1.11858
135 *479:40 *858:B 1.39998
136 *479:90 *479:40 0.621448
137 *479:48 *479:47 0.497135
138 *479:101 *479:109 0.124312
139 *479:40 *479:39 0.745703
140 *479:110 *479:47 1.39998
141 *479:110 *479:109 0.37288
142 *479:39 *479:38 0.497135
143 *479:158 *851:B 1.39998
144 *479:111 *479:110 0.37288
145 *479:38 *479:37 1.49141
146 *479:158 *479:37 0.124312
147 *479:102 *479:111 0.124312
148 *479:37 *479:36 2.7343
149 *479:103 *479:102 1.11858
150 *479:105 *479:36 1.39998
151 *479:103 *479:112 0.124312
152 *479:92 *872:B 1.39998
153 *479:105 *479:104 1.49141
154 *479:104 *479:112 0.37288
155 *479:153 *871:B 1.39998
156 *479:92 *479:91 0.497135
157 *479:91 *479:104 1.39998
158 *479:34 *870:B 1.39998
159 *479:34 *479:153 1.11858
160 *479:91 *479:163 0.37288
161 *479:35 *479:34 0.248568
162 *479:162 *479:163 0.124312
163 *479:35 *479:122 0.248568
164 *479:46 *869:B 1.39998
165 *479:162 *479:46 0.248568
166 *479:123 *479:122 1.24284
167 *479:46 *479:45 0.870015
168 *479:123 *479:120 0.248568
169 *479:113 *479:45 1.39998
170 *479:121 *479:120 0.497135
171 *479:114 *479:113 0.37288
172 *479:156 *479:121 1.39998
173 *479:115 *479:114 0.870015
174 *479:156 *811:Y 0.386648
175 *479:119 *479:115 0.37288
176 *479:157 *479:119 1.39998
177 *479:157 *811:Y 1.39998
178 *479:147 *479:157 0.19304
*END

*D_NET *480 0.00054721

*CONN
*I *940:Y O *C 73.915 54.955 *L 0 *D AOI211XL
*I *828:D I *C 76.995 57.855 *L 0.0016 *D DFFQX1

*CAP
1 *940:Y 3.89605e-05
2 *828:D 3.67989e-05
3 *480:3 5.92606e-05
4 *480:4 0.0001136
5 *480:5 0.0001136
6 *480:6 7.6269e-05
7 *480:7 3.24514e-05
8 *480:8 7.6269e-05

*RES
1 *940:Y *480:3 0.580008
2 *480:4 *480:3 1.39999998
3 *480:4 *480:5 0.870001
4 *480:6 *480:5 1.39999998
5 *480:6 *480:8 0.621429
6 *480:7 *828:D 1.39999998
7 *480:7 *480:8 1.39999998
8 *480:2 *480:7 0.193051
*END

*D_NET *481 0.00155555

*CONN
*I *941:Y O *C 65.285 34.075 *L 0 *D AOI211XL
*I *836:D I *C 53.215 31.755 *L 0.0016 *D DFFQX1

*CAP
1 *941:Y 3.68e-05
2 *836:D 3.68e-05
3 *481:2 8.73009e-05
4 *481:3 8.821e-05
5 *481:4 7.39816e-05
6 *481:5 7.39816e-05
7 *481:6 0.000211929
8 *481:7 0.00024519
9 *481:8 0.00021108
10 *481:9 0.00024519
11 *481:10 5.8672e-05
12 *481:11 5.95213e-05
13 *481:12 4.37702e-05
14 *481:13 4.37702e-05
15 *481:14 3.93591e-05

*RES
1 *481:14 *941:Y 1.39999
2 *481:13 *481:14 0.12429
3 *481:12 *481:13 0.372869
4 *481:2 *481:12 0.12429
5 *481:3 *481:2 0.497158
6 *481:11 *481:3 1.39999
7 *481:10 *481:11 0.372869
8 *481:9 *481:10 0.12429
9 *481:7 *481:9 2.2371428
10 *481:7 *481:8 0.12429
11 *481:6 *481:8 1.98856
12 *481:5 *481:6 1.39999
13 *481:4 *481:5 0.497158
14 *836:D *481:4 1.39999
*END

