*SPEF "IEEE 1481-1998"
*DESIGN "alarm_clock_top"
*DATE "Sat Mar  7 18:05:25 2026"
*VENDOR "Cadence Design Systems, Inc."
*PROGRAM "Innovus"
*VERSION "21.15-s110_1"
*DESIGN_FLOW "COUPLING C" "PIN_CAP NONE" "NAME_SCOPE LOCAL"
*DIVIDER /
*DELIMITER :
*BUS_DELIMITER []
*T_UNIT 1 NS
*C_UNIT 1 PF
*R_UNIT 1 OHM
*L_UNIT 1 HENRY

// MMMC spef file for corner 'rc_corners'

*NAME_MAP

*1 ac/FE_PHN137_state_0
*2 tg/FE_PHN136_n_59
*3 tg/FE_PHN135_n_47
*4 tg/FE_PHN134_n_55
*5 tg/FE_PHN133_n_59
*6 tg/FE_PHN132_n_56
*7 tg/FE_PHN131_n_47
*8 tg/FE_PHN130_n_57
*9 tg/FE_PHN129_n_55
*10 tg/FE_PHN128_n_61
*11 tg/FE_PHN127_inc_add_20_32_n_48
*12 tg/FE_PHN126_n_60
*13 tg/FE_PHN125_div_cnt_10
*14 tg/FE_PHN124_div_cnt_13
*15 tc/FE_PHN123_n_22
*16 tc/FE_PHN122_n_41
*17 tg/FE_PHN121_div_cnt_16
*18 tg/FE_PHN120_div_cnt_17
*19 tg/FE_PHN119_div_cnt_18
*20 tc/FE_PHN118_n_65
*21 tc/FE_PHN117_n_67
*22 tg/FE_PHN116_n_39
*23 ac/FE_PHN115_alarm_cnt_1
*24 tg/FE_PHN114_n_41
*25 ac/FE_PHN113_alarm_cnt_0
*26 tg/FE_PHN112_div_cnt_22
*27 tg/FE_PHN111_div_cnt_13
*28 tg/FE_PHN110_div_cnt_15
*29 tc/FE_PHN109_sec_1
*30 tg/FE_PHN108_div_cnt_21
*31 tc/FE_PHN107_sec_4
*32 ac/FE_PHN106_alarm_cnt_0
*33 tc/FE_PHN105_min_0
*34 ac/FE_PHN104_alarm_cnt_1
*35 tg/FE_PHN103_div_cnt_17
*36 tg/FE_PHN102_div_cnt_12
*37 tg/FE_PHN101_div_cnt_18
*38 tg/FE_PHN100_div_cnt_14
*39 tc/FE_PHN99_hour_1
*40 tg/FE_PHN98_div_cnt_16
*41 tg/FE_PHN97_div_cnt_20
*42 tc/FE_PHN96_hour_2
*43 tc/FE_PHN95_n_14
*44 tg/FE_PHN94_inc_add_20_32_n_1
*45 ac/FE_PHN93_n_54
*46 ac/FE_PHN92_n_55
*47 tc/FE_PHN91_n_65
*48 tc/FE_PHN90_n_50
*49 tc/FE_PHN89_n_48
*50 tg/FE_PHN88_n_57
*51 tg/FE_PHN87_n_55
*52 tg/FE_PHN86_n_56
*53 tg/FE_PHN85_n_60
*54 tg/FE_PHN84_n_59
*55 tg/FE_PHN83_n_61
*56 tg/FE_PHN82_n_51
*57 tg/FE_PHN81_n_53
*58 tg/FE_PHN80_n_54
*59 tc/FE_PHN79_n_67
*60 tg/FE_PHN78_n_50
*61 tg/FE_PHN77_n_49
*62 tc/FE_PHN76_n_14
*63 tc/FE_PHN75_n_27
*64 tg/FE_PHN74_n_58
*65 tc/FE_PHN73_n_33
*66 tc/FE_PHN72_n_31
*67 tc/FE_PHN71_n_51
*68 tc/FE_PHN70_n_53
*69 tg/FE_PHN69_div_cnt_3
*70 tg/FE_PHN68_div_cnt_5
*71 ac/FE_PHN67_alarm_cnt_1
*72 FE_PHN66_tick_1s
*73 ac/FE_PHN65_alarm_cnt_0
*74 tg/FE_PHN64_div_cnt_11
*75 tg/FE_PHN63_div_cnt_15
*76 tc/FE_PHN62_min_0
*77 ar/FE_PHN61_alarm_min_5
*78 tg/FE_PHN60_div_cnt_13
*79 tg/FE_PHN59_div_cnt_16
*80 tc/FE_PHN58_sec_4
*81 tc/FE_PHN57_sec_1
*82 tc/FE_PHN56_min_1
*83 tg/FE_PHN55_div_cnt_14
*84 tg/FE_PHN54_div_cnt_12
*85 tg/FE_PHN53_div_cnt_10
*86 tg/FE_PHN52_div_cnt_9
*87 tc/FE_PHN51_hour_2
*88 tc/FE_PHN50_hour_1
*89 tg/FE_PHN49_n_58
*90 ac/FE_PHN48_n_56
*91 tg/FE_PHN47_n_43
*92 FE_PHN46_alarm_min_4
*93 tc/FE_PHN45_sec_3
*94 tg/FE_PHN44_div_cnt_11
*95 tg/FE_PHN43_div_cnt_15
*96 tc/FE_PHN42_min_3
*97 FE_PHN41_tick_1s
*98 tg/FE_PHN40_div_cnt_3
*99 tg/FE_PHN39_div_cnt_9
*100 tg/FE_PHN38_div_cnt_10
*101 tg/FE_PHN37_div_cnt_14
*102 FE_PHN36_alarm_min_5
*103 tg/FE_PHN35_div_cnt_12
*104 tg/FE_PHN34_div_cnt_13
*105 tg/FE_PHN33_div_cnt_5
*106 tc/FE_PHN32_sec_0
*107 tc/FE_PHN31_sec_2
*108 tc/FE_PHN30_min_5
*109 tc/FE_PHN29_hour_0
*110 tc/FE_PHN28_sec_5
*111 FE_PHN27_alarm_min_4
*112 tc/FE_PHN26_min_4
*113 ar/FE_PHN25_alarm_sec_5
*114 ar/FE_PHN24_alarm_min_2
*115 ar/FE_PHN23_alarm_sec_1
*116 ar/FE_PHN22_alarm_min_0
*117 ar/FE_PHN21_alarm_sec_3
*118 ar/FE_PHN20_alarm_hour_3
*119 ar/FE_PHN19_alarm_min_1
*120 ar/FE_PHN18_alarm_min_3
*121 ar/FE_PHN17_alarm_hour_0
*122 ar/FE_PHN16_alarm_hour_2
*123 ar/FE_PHN15_alarm_hour_4
*124 ar/FE_PHN14_alarm_sec_2
*125 ar/FE_PHN13_alarm_hour_1
*126 ar/FE_PHN12_alarm_sec_0
*127 tc/FE_PHN11_min_2
*128 ar/FE_PHN10_alarm_sec_4
*129 tg/FE_PHN9_div_cnt_7
*130 tg/FE_PHN8_div_cnt_2
*131 tg/FE_PHN7_div_cnt_6
*132 tg/FE_PHN6_div_cnt_4
*133 ar/FE_RN_1
*134 ac/FE_PHN4_state_1
*135 tg/FE_PHN3_div_cnt_1
*136 tg/FE_PHN2_div_cnt_0
*137 tg/FE_PHN1_div_cnt_8
*138 ac/FE_PHN0_state_0
*139 clk
*140 reset
*141 alarm_set
*142 set_hour[4]
*143 set_hour[3]
*144 set_hour[2]
*145 set_hour[1]
*146 set_hour[0]
*147 set_min[5]
*148 set_min[4]
*149 set_min[3]
*150 set_min[2]
*151 set_min[1]
*152 set_min[0]
*153 set_sec[5]
*154 set_sec[4]
*155 set_sec[3]
*156 set_sec[2]
*157 set_sec[1]
*158 set_sec[0]
*159 hour[4]
*160 hour[3]
*161 hour[2]
*162 hour[1]
*163 hour[0]
*164 min[5]
*165 min[4]
*166 min[3]
*167 min[2]
*168 min[1]
*169 min[0]
*170 sec[5]
*171 sec[4]
*172 sec[3]
*173 sec[2]
*174 sec[1]
*175 sec[0]
*176 alarm_hour[4]
*177 alarm_hour[3]
*178 alarm_hour[2]
*179 alarm_hour[1]
*180 alarm_hour[0]
*181 alarm_min[5]
*182 alarm_min[4]
*183 alarm_min[3]
*184 alarm_min[2]
*185 alarm_min[1]
*186 alarm_min[0]
*187 alarm_sec[5]
*188 alarm_sec[4]
*189 alarm_sec[3]
*190 alarm_sec[2]
*191 alarm_sec[1]
*192 alarm_sec[0]
*193 alarm_on
*194 alarm_enable
*195 tick_1s
*196 ac/state[1]
*197 ac/state[0]
*198 ac/alarm_cnt[1]
*199 ac/alarm_cnt[0]
*200 ac/n_0
*201 ac/n_1
*202 ac/n_2
*203 ac/n_3
*204 ac/n_4
*205 ac/n_5
*206 ac/n_6
*207 ac/n_7
*208 ac/n_8
*209 ac/n_9
*210 ac/n_10
*211 ac/n_11
*212 ac/n_12
*213 ac/n_13
*214 ac/n_14
*215 ac/n_15
*216 ac/n_16
*217 ac/n_17
*218 ac/n_18
*219 ac/n_19
*220 ac/n_20
*221 ac/n_21
*222 ac/n_22
*223 ac/n_23
*224 ac/n_24
*225 ac/n_25
*226 ac/n_26
*227 ac/n_27
*228 ac/n_28
*229 ac/n_29
*230 ac/n_30
*231 ac/n_31
*232 ac/n_32
*233 ac/n_33
*234 ac/n_34
*235 ac/n_35
*236 ac/n_36
*237 ac/n_37
*238 ac/n_38
*239 ac/n_39
*240 ac/n_40
*241 ac/n_41
*242 ac/n_42
*243 ac/n_43
*244 ac/n_44
*245 ac/n_45
*246 ac/n_46
*247 ac/n_47
*248 ac/n_48
*249 ac/n_49
*250 ac/n_50
*251 ac/n_51
*252 ac/n_52
*253 ac/n_53
*254 ac/n_54
*255 ac/n_55
*256 ac/n_56
*257 ac/n_57
*258 ac/n_58
*259 ac/n_59
*260 ar/n_0
*261 ar/n_1
*262 ar/n_2
*263 ar/n_3
*264 ar/n_4
*265 ar/n_5
*266 ar/n_6
*267 ar/n_7
*268 ar/n_8
*269 ar/n_9
*270 ar/n_10
*271 ar/n_11
*272 ar/n_12
*273 ar/n_13
*274 ar/n_14
*275 ar/n_15
*276 ar/n_16
*277 ar/n_17
*278 ar/n_18
*279 ar/n_19
*280 ar/n_20
*281 ar/n_21
*282 ar/n_22
*283 ar/n_23
*284 ar/n_24
*285 ar/n_25
*286 ar/n_26
*287 ar/n_27
*288 ar/n_28
*289 ar/n_29
*290 ar/n_30
*291 ar/n_31
*292 ar/n_32
*293 ar/n_33
*294 ar/n_34
*295 ar/n_35
*296 tc/n_0
*297 tc/n_1
*298 tc/n_2
*299 tc/n_3
*300 tc/n_4
*301 tc/n_5
*302 tc/n_6
*303 tc/n_7
*304 tc/n_8
*305 tc/n_9
*306 tc/n_10
*307 tc/n_11
*308 tc/n_12
*309 tc/n_13
*310 tc/n_14
*311 tc/n_15
*312 tc/n_16
*313 tc/n_17
*314 tc/n_18
*315 tc/n_19
*316 tc/n_20
*317 tc/n_21
*318 tc/n_22
*319 tc/n_23
*320 tc/n_24
*321 tc/n_25
*322 tc/n_26
*323 tc/n_27
*324 tc/n_28
*325 tc/n_29
*326 tc/n_30
*327 tc/n_31
*328 tc/n_32
*329 tc/n_33
*330 tc/n_34
*331 tc/n_35
*332 tc/n_36
*333 tc/n_37
*334 tc/n_38
*335 tc/n_39
*336 tc/n_40
*337 tc/n_41
*338 tc/n_42
*339 tc/n_43
*340 tc/n_44
*341 tc/n_45
*342 tc/n_46
*343 tc/n_47
*344 tc/n_48
*345 tc/n_49
*346 tc/n_50
*347 tc/n_51
*348 tc/n_52
*349 tc/n_53
*350 tc/n_54
*351 tc/n_55
*352 tc/n_56
*353 tc/n_57
*354 tc/n_58
*355 tc/n_59
*356 tc/n_60
*357 tc/n_61
*358 tc/n_62
*359 tc/n_63
*360 tc/n_64
*361 tc/n_65
*362 tc/n_66
*363 tc/n_67
*364 tg/div_cnt[25]
*365 tg/div_cnt[24]
*366 tg/div_cnt[23]
*367 tg/div_cnt[22]
*368 tg/div_cnt[21]
*369 tg/div_cnt[20]
*370 tg/div_cnt[19]
*371 tg/div_cnt[18]
*372 tg/div_cnt[17]
*373 tg/div_cnt[16]
*374 tg/div_cnt[15]
*375 tg/div_cnt[14]
*376 tg/div_cnt[13]
*377 tg/div_cnt[12]
*378 tg/div_cnt[11]
*379 tg/div_cnt[10]
*380 tg/div_cnt[9]
*381 tg/div_cnt[8]
*382 tg/div_cnt[7]
*383 tg/div_cnt[6]
*384 tg/div_cnt[5]
*385 tg/div_cnt[4]
*386 tg/div_cnt[3]
*387 tg/div_cnt[2]
*388 tg/div_cnt[1]
*389 tg/div_cnt[0]
*390 tg/inc_add_20_32_n_0
*391 tg/inc_add_20_32_n_1
*392 tg/inc_add_20_32_n_2
*393 tg/inc_add_20_32_n_3
*394 tg/inc_add_20_32_n_4
*395 tg/inc_add_20_32_n_5
*396 tg/inc_add_20_32_n_7
*397 tg/inc_add_20_32_n_8
*398 tg/inc_add_20_32_n_9
*399 tg/inc_add_20_32_n_10
*400 tg/inc_add_20_32_n_11
*401 tg/inc_add_20_32_n_12
*402 tg/inc_add_20_32_n_13
*403 tg/inc_add_20_32_n_15
*404 tg/inc_add_20_32_n_16
*405 tg/inc_add_20_32_n_17
*406 tg/inc_add_20_32_n_18
*407 tg/inc_add_20_32_n_20
*408 tg/inc_add_20_32_n_21
*409 tg/inc_add_20_32_n_22
*410 tg/inc_add_20_32_n_23
*411 tg/inc_add_20_32_n_26
*412 tg/inc_add_20_32_n_27
*413 tg/inc_add_20_32_n_28
*414 tg/inc_add_20_32_n_30
*415 tg/inc_add_20_32_n_32
*416 tg/inc_add_20_32_n_33
*417 tg/inc_add_20_32_n_34
*418 tg/inc_add_20_32_n_35
*419 tg/inc_add_20_32_n_39
*420 tg/inc_add_20_32_n_40
*421 tg/inc_add_20_32_n_41
*422 tg/inc_add_20_32_n_42
*423 tg/inc_add_20_32_n_43
*424 tg/inc_add_20_32_n_48
*425 tg/inc_add_20_32_n_49
*426 tg/inc_add_20_32_n_52
*427 tg/inc_add_20_32_n_54
*428 tg/inc_add_20_32_n_55
*429 tg/inc_add_20_32_n_56
*430 tg/inc_add_20_32_n_60
*431 tg/inc_add_20_32_n_62
*432 tg/inc_add_20_32_n_64
*433 tg/inc_add_20_32_n_66
*434 tg/inc_add_20_32_n_68
*435 tg/n_0
*436 tg/n_1
*437 tg/n_2
*438 tg/n_3
*439 tg/n_4
*440 tg/n_5
*441 tg/n_6
*442 tg/n_7
*443 tg/n_8
*444 tg/n_9
*445 tg/n_10
*446 tg/n_11
*447 tg/n_12
*448 tg/n_14
*449 tg/n_15
*450 tg/n_16
*451 tg/n_17
*452 tg/n_18
*453 tg/n_19
*454 tg/n_21
*455 tg/n_22
*456 tg/n_23
*457 tg/n_24
*458 tg/n_25
*459 tg/n_26
*460 tg/n_27
*461 tg/n_28
*462 tg/n_29
*463 tg/n_30
*464 tg/n_31
*465 tg/n_32
*466 tg/n_33
*467 tg/n_34
*468 tg/n_35
*469 tg/n_36
*470 tg/n_37
*471 tg/n_38
*472 tg/n_39
*473 tg/n_40
*474 tg/n_41
*475 tg/n_42
*476 tg/n_43
*477 tg/n_44
*478 tg/n_46
*479 tg/n_47
*480 tg/n_48
*481 tg/n_49
*482 tg/n_50
*483 tg/n_51
*484 tg/n_53
*485 tg/n_54
*486 tg/n_55
*487 tg/n_56
*488 tg/n_57
*489 tg/n_58
*490 tg/n_59
*491 tg/n_60
*492 tg/n_61
*493 tg/n_62
*494 tg/n_97
*495 tg/n_98
*496 FE_PHC66_tick_1s
*497 FE_PHC41_tick_1s
*498 ac/FE_PHC137_state_0
*499 ac/FE_PHC115_alarm_cnt_1
*500 ac/FE_PHC113_alarm_cnt_0
*501 ac/FE_PHC106_alarm_cnt_0
*502 ac/FE_PHC104_alarm_cnt_1
*503 ac/FE_PHC93_n_54
*504 ac/FE_PHC92_n_55
*505 ac/FE_PHC67_alarm_cnt_1
*506 ac/FE_PHC65_alarm_cnt_0
*507 ac/FE_PHC48_n_56
*508 ac/FE_PHC4_state_1
*509 ac/FE_PHC0_state_0
*510 ac/alarm_on_reg
*511 ac/g613__2398
*512 ac/g614__5107
*513 ac/alarm_cnt_reg\[0\]
*514 ac/alarm_cnt_reg\[1\]
*515 ac/state_reg\[0\]
*516 ac/state_reg\[1\]
*517 ac/g1693__6260
*518 ac/g1694__4319
*519 ac/g1695__8428
*520 ac/g1696__5526
*521 ac/g1697__6783
*522 ac/g1698__3680
*523 ac/g1699__1617
*524 ac/g1700__2802
*525 ac/g1701__1705
*526 ac/g1702__5122
*527 ac/g1703__8246
*528 ac/g1704__7098
*529 ac/g1705__6131
*530 ac/g1706__1881
*531 ac/g1707__5115
*532 ac/g1708__7482
*533 ac/g1709__4733
*534 ac/g1710__6161
*535 ac/g1711__9315
*536 ac/g1712__9945
*537 ac/g1713__2883
*538 ac/g1714__2346
*539 ac/g1715__1666
*540 ac/g1716__7410
*541 ac/g1717__6417
*542 ac/g1718__5477
*543 ac/g1719__2398
*544 ac/g1720__5107
*545 ac/g1721__6260
*546 ac/g1722__4319
*547 ac/g1723__8428
*548 ac/g1724__5526
*549 ac/g1725__6783
*550 ac/g1726__3680
*551 ac/g1727__1617
*552 ac/g1728__2802
*553 ac/g1729__1705
*554 ac/g1730__5122
*555 ac/g1731
*556 ac/g1732
*557 ac/g1733
*558 ac/g1734
*559 ac/g1735
*560 ac/g1736
*561 ac/g1737
*562 ac/g1738
*563 ac/g1739
*564 ac/g1743
*565 ac/g1744
*566 ac/g1745
*567 ac/g1746
*568 ac/g1747
*569 ac/g1748
*570 ac/g1749
*571 ac/g1750
*572 ac/g1751
*573 ac/g1752
*574 ac/g1753
*575 ar/FE_PHC61_alarm_min_5
*576 ar/FE_PHC46_alarm_min_4
*577 ar/FE_PHC36_alarm_min_5
*578 ar/FE_PHC27_alarm_min_4
*579 ar/FE_PHC25_alarm_sec_5
*580 ar/FE_PHC24_alarm_min_2
*581 ar/FE_PHC23_alarm_sec_1
*582 ar/FE_PHC22_alarm_min_0
*583 ar/FE_PHC21_alarm_sec_3
*584 ar/FE_PHC20_alarm_hour_3
*585 ar/FE_PHC19_alarm_min_1
*586 ar/FE_PHC18_alarm_min_3
*587 ar/FE_PHC17_alarm_hour_0
*588 ar/FE_PHC16_alarm_hour_2
*589 ar/FE_PHC15_alarm_hour_4
*590 ar/FE_PHC14_alarm_sec_2
*591 ar/FE_PHC13_alarm_hour_1
*592 ar/FE_PHC12_alarm_sec_0
*593 ar/FE_PHC10_alarm_sec_4
*594 ar/FE_PHC5_alarm_enable
*595 ar/alarm_min_reg\[4\]
*596 ar/alarm_hour_reg\[3\]
*597 ar/alarm_hour_reg\[4\]
*598 ar/alarm_sec_reg\[5\]
*599 ar/alarm_min_reg\[0\]
*600 ar/alarm_min_reg\[1\]
*601 ar/alarm_min_reg\[2\]
*602 ar/alarm_min_reg\[3\]
*603 ar/alarm_hour_reg\[0\]
*604 ar/alarm_enable_reg
*605 ar/alarm_min_reg\[5\]
*606 ar/alarm_sec_reg\[0\]
*607 ar/alarm_sec_reg\[1\]
*608 ar/alarm_hour_reg\[2\]
*609 ar/alarm_sec_reg\[2\]
*610 ar/alarm_sec_reg\[3\]
*611 ar/alarm_sec_reg\[4\]
*612 ar/alarm_hour_reg\[1\]
*613 ar/g70__8246
*614 ar/g71__7098
*615 ar/g72__6131
*616 ar/g73__1881
*617 ar/g74__5115
*618 ar/g75__7482
*619 ar/g76__4733
*620 ar/g77__6161
*621 ar/g78__9315
*622 ar/g79__9945
*623 ar/g80__2883
*624 ar/g81__2346
*625 ar/g82__1666
*626 ar/g83__7410
*627 ar/g84__6417
*628 ar/g85__5477
*629 ar/g86__2398
*630 ar/g87__5107
*631 ar/g88__6260
*632 ar/g89__4319
*633 ar/g90__8428
*634 ar/g91__5526
*635 ar/g92__6783
*636 ar/g93__3680
*637 ar/g94__1617
*638 ar/g95__2802
*639 ar/g96__1705
*640 ar/g97__5122
*641 ar/g98__8246
*642 ar/g99__7098
*643 ar/g100__6131
*644 ar/g101__1881
*645 ar/g102__5115
*646 ar/g103__7482
*647 ar/g104__4733
*648 ar/g105
*649 tc/FE_PHC123_n_22
*650 tc/FE_PHC122_n_41
*651 tc/FE_PHC118_n_65
*652 tc/FE_PHC117_n_67
*653 tc/FE_PHC109_sec_1
*654 tc/FE_PHC107_sec_4
*655 tc/FE_PHC105_min_0
*656 tc/FE_PHC99_hour_1
*657 tc/FE_PHC96_hour_2
*658 tc/FE_PHC95_n_14
*659 tc/FE_PHC91_n_65
*660 tc/FE_PHC90_n_50
*661 tc/FE_PHC89_n_48
*662 tc/FE_PHC79_n_67
*663 tc/FE_PHC76_n_14
*664 tc/FE_PHC75_n_27
*665 tc/FE_PHC73_n_33
*666 tc/FE_PHC72_n_31
*667 tc/FE_PHC71_n_51
*668 tc/FE_PHC70_n_53
*669 tc/FE_PHC62_min_0
*670 tc/FE_PHC58_sec_4
*671 tc/FE_PHC57_sec_1
*672 tc/FE_PHC56_min_1
*673 tc/FE_PHC51_hour_2
*674 tc/FE_PHC50_hour_1
*675 tc/FE_PHC45_sec_3
*676 tc/FE_PHC42_min_3
*677 tc/FE_PHC32_sec_0
*678 tc/FE_PHC31_sec_2
*679 tc/FE_PHC30_min_5
*680 tc/FE_PHC29_hour_0
*681 tc/FE_PHC28_sec_5
*682 tc/FE_PHC26_min_4
*683 tc/FE_PHC11_min_2
*684 tc/hour_reg\[0\]
*685 tc/hour_reg\[1\]
*686 tc/hour_reg\[2\]
*687 tc/hour_reg\[3\]
*688 tc/hour_reg\[4\]
*689 tc/min_reg\[0\]
*690 tc/min_reg\[1\]
*691 tc/min_reg\[2\]
*692 tc/min_reg\[3\]
*693 tc/min_reg\[4\]
*694 tc/min_reg\[5\]
*695 tc/sec_reg\[0\]
*696 tc/sec_reg\[1\]
*697 tc/sec_reg\[2\]
*698 tc/sec_reg\[3\]
*699 tc/sec_reg\[4\]
*700 tc/sec_reg\[5\]
*701 tc/g1763
*702 tc/g1764__6161
*703 tc/g1765__9315
*704 tc/g1767
*705 tc/g1768__9945
*706 tc/g1769__2883
*707 tc/g1770__2346
*708 tc/g1772__1666
*709 tc/g1773__7410
*710 tc/g1774__6417
*711 tc/g1775__5477
*712 tc/g1778__2398
*713 tc/g1781__5107
*714 tc/g1782__6260
*715 tc/g1784__4319
*716 tc/g1785__8428
*717 tc/g1786__5526
*718 tc/g1787__6783
*719 tc/g1788__3680
*720 tc/g1789__1617
*721 tc/g1790__2802
*722 tc/g1791__1705
*723 tc/g1792__5122
*724 tc/g1794__8246
*725 tc/g1795__7098
*726 tc/g1796__6131
*727 tc/g1797__1881
*728 tc/g1798__5115
*729 tc/g1799__7482
*730 tc/g1800__4733
*731 tc/g1801
*732 tc/g1804__6161
*733 tc/g1806__9315
*734 tc/g1808__9945
*735 tc/g1809__2883
*736 tc/g1810__2346
*737 tc/g1811__1666
*738 tc/g1813__7410
*739 tc/g1814__6417
*740 tc/g1815__5477
*741 tc/g1816__2398
*742 tc/g1817__5107
*743 tc/g1819__6260
*744 tc/g1820__4319
*745 tc/g1821__8428
*746 tc/g1822__5526
*747 tc/g1823__6783
*748 tc/g1824__3680
*749 tc/g1825__1617
*750 tc/g1826
*751 tc/g1828__2802
*752 tc/g1829__1705
*753 tc/g1830__5122
*754 tc/g1831__8246
*755 tc/g1833__7098
*756 tc/g1834__6131
*757 tc/g1835__1881
*758 tc/g1836__5115
*759 tc/g1837__7482
*760 tc/g1838__4733
*761 tc/g1839__6161
*762 tc/g1840__9315
*763 tc/g1841__9945
*764 tc/g1853
*765 tc/g1862
*766 tc/g1863
*767 tc/g1874
*768 tc/g2__2883
*769 tg/FE_PHC136_n_59
*770 tg/FE_PHC135_n_47
*771 tg/FE_PHC134_n_55
*772 tg/FE_PHC133_n_59
*773 tg/FE_PHC132_n_56
*774 tg/FE_PHC131_n_47
*775 tg/FE_PHC130_n_57
*776 tg/FE_PHC129_n_55
*777 tg/FE_PHC128_n_61
*778 tg/FE_PHC127_inc_add_20_32_n_48
*779 tg/FE_PHC126_n_60
*780 tg/FE_PHC125_div_cnt_10
*781 tg/FE_PHC124_div_cnt_13
*782 tg/FE_PHC121_div_cnt_16
*783 tg/FE_PHC120_div_cnt_17
*784 tg/FE_PHC119_div_cnt_18
*785 tg/FE_PHC116_n_39
*786 tg/FE_PHC114_n_41
*787 tg/FE_PHC112_div_cnt_22
*788 tg/FE_PHC111_div_cnt_13
*789 tg/FE_PHC110_div_cnt_15
*790 tg/FE_PHC108_div_cnt_21
*791 tg/FE_PHC103_div_cnt_17
*792 tg/FE_PHC102_div_cnt_12
*793 tg/FE_PHC101_div_cnt_18
*794 tg/FE_PHC100_div_cnt_14
*795 tg/FE_PHC98_div_cnt_16
*796 tg/FE_PHC97_div_cnt_20
*797 tg/FE_PHC94_inc_add_20_32_n_1
*798 tg/FE_PHC88_n_57
*799 tg/FE_PHC87_n_55
*800 tg/FE_PHC86_n_56
*801 tg/FE_PHC85_n_60
*802 tg/FE_PHC84_n_59
*803 tg/FE_PHC83_n_61
*804 tg/FE_PHC82_n_51
*805 tg/FE_PHC81_n_53
*806 tg/FE_PHC80_n_54
*807 tg/FE_PHC78_n_50
*808 tg/FE_PHC77_n_49
*809 tg/FE_PHC74_n_58
*810 tg/FE_PHC69_div_cnt_3
*811 tg/FE_PHC68_div_cnt_5
*812 tg/FE_PHC64_div_cnt_11
*813 tg/FE_PHC63_div_cnt_15
*814 tg/FE_PHC60_div_cnt_13
*815 tg/FE_PHC59_div_cnt_16
*816 tg/FE_PHC55_div_cnt_14
*817 tg/FE_PHC54_div_cnt_12
*818 tg/FE_PHC53_div_cnt_10
*819 tg/FE_PHC52_div_cnt_9
*820 tg/FE_PHC49_n_58
*821 tg/FE_PHC47_n_43
*822 tg/FE_PHC44_div_cnt_11
*823 tg/FE_PHC43_div_cnt_15
*824 tg/FE_PHC40_div_cnt_3
*825 tg/FE_PHC39_div_cnt_9
*826 tg/FE_PHC38_div_cnt_10
*827 tg/FE_PHC37_div_cnt_14
*828 tg/FE_PHC35_div_cnt_12
*829 tg/FE_PHC34_div_cnt_13
*830 tg/FE_PHC33_div_cnt_5
*831 tg/FE_PHC9_div_cnt_7
*832 tg/FE_PHC8_div_cnt_2
*833 tg/FE_PHC7_div_cnt_6
*834 tg/FE_PHC6_div_cnt_4
*835 tg/FE_PHC3_div_cnt_1
*836 tg/FE_PHC2_div_cnt_0
*837 tg/FE_PHC1_div_cnt_8
*838 tg/tick_1s_reg
*839 tg/g951__2346
*840 tg/g952__1666
*841 tg/g953__7410
*842 tg/g954__6417
*843 tg/g955__5477
*844 tg/g956__2398
*845 tg/g957__5107
*846 tg/g958__6260
*847 tg/g959__4319
*848 tg/g960__8428
*849 tg/g961__5526
*850 tg/g2__6783
*851 tg/div_cnt_reg\[10\]
*852 tg/div_cnt_reg\[5\]
*853 tg/div_cnt_reg\[6\]
*854 tg/div_cnt_reg\[7\]
*855 tg/div_cnt_reg\[8\]
*856 tg/div_cnt_reg\[9\]
*857 tg/div_cnt_reg\[4\]
*858 tg/div_cnt_reg\[11\]
*859 tg/div_cnt_reg\[12\]
*860 tg/div_cnt_reg\[13\]
*861 tg/div_cnt_reg\[14\]
*862 tg/div_cnt_reg\[15\]
*863 tg/div_cnt_reg\[0\]
*864 tg/div_cnt_reg\[16\]
*865 tg/div_cnt_reg\[17\]
*866 tg/div_cnt_reg\[18\]
*867 tg/div_cnt_reg\[19\]
*868 tg/div_cnt_reg\[1\]
*869 tg/div_cnt_reg\[20\]
*870 tg/div_cnt_reg\[21\]
*871 tg/div_cnt_reg\[22\]
*872 tg/div_cnt_reg\[23\]
*873 tg/div_cnt_reg\[24\]
*874 tg/div_cnt_reg\[25\]
*875 tg/div_cnt_reg\[2\]
*876 tg/div_cnt_reg\[3\]
*877 tg/g720__3680
*878 tg/g721__1617
*879 tg/g722__2802
*880 tg/g723__1705
*881 tg/g724__5122
*882 tg/g726__7098
*883 tg/g727__6131
*884 tg/g728__1881
*885 tg/g729__5115
*886 tg/g730__7482
*887 tg/g731__4733
*888 tg/g733__9315
*889 tg/g734__9945
*890 tg/g735__2883
*891 tg/g736__2346
*892 tg/g737__1666
*893 tg/g738__7410
*894 tg/g739__6417
*895 tg/g740__5477
*896 tg/g741__2398
*897 tg/g742__5107
*898 tg/g743__6260
*899 tg/g744__4319
*900 tg/g745__8428
*901 tg/inc_add_20_32_g393__5526
*902 tg/inc_add_20_32_g394__6783
*903 tg/inc_add_20_32_g395__3680
*904 tg/inc_add_20_32_g396__1617
*905 tg/inc_add_20_32_g397__2802
*906 tg/inc_add_20_32_g398__1705
*907 tg/inc_add_20_32_g399__5122
*908 tg/inc_add_20_32_g400__8246
*909 tg/inc_add_20_32_g401__7098
*910 tg/inc_add_20_32_g402__6131
*911 tg/inc_add_20_32_g403__1881
*912 tg/inc_add_20_32_g404__5115
*913 tg/inc_add_20_32_g405__7482
*914 tg/inc_add_20_32_g406__4733
*915 tg/inc_add_20_32_g407__6161
*916 tg/inc_add_20_32_g408__9315
*917 tg/inc_add_20_32_g409__9945
*918 tg/inc_add_20_32_g410__2883
*919 tg/inc_add_20_32_g411__2346
*920 tg/inc_add_20_32_g412__1666
*921 tg/inc_add_20_32_g413__7410
*922 tg/inc_add_20_32_g414__6417
*923 tg/inc_add_20_32_g415__5477
*924 tg/inc_add_20_32_g417__5107
*925 tg/inc_add_20_32_g418__6260
*926 tg/inc_add_20_32_g419__4319
*927 tg/inc_add_20_32_g420__8428
*928 tg/inc_add_20_32_g421__5526
*929 tg/inc_add_20_32_g422__6783
*930 tg/inc_add_20_32_g423__3680
*931 tg/inc_add_20_32_g425__2802
*932 tg/inc_add_20_32_g426__1705
*933 tg/inc_add_20_32_g427__5122
*934 tg/inc_add_20_32_g428__8246
*935 tg/inc_add_20_32_g429__7098
*936 tg/inc_add_20_32_g430__6131
*937 tg/inc_add_20_32_g431__1881
*938 tg/inc_add_20_32_g432__5115
*939 tg/inc_add_20_32_g433__7482
*940 tg/inc_add_20_32_g434__4733
*941 tg/inc_add_20_32_g435__6161
*942 tg/inc_add_20_32_g436__9315
*943 tg/inc_add_20_32_g437__9945
*944 tg/inc_add_20_32_g438__2883
*945 tg/inc_add_20_32_g439__2346
*946 tg/inc_add_20_32_g440__1666
*947 tg/inc_add_20_32_g441__7410
*948 tg/inc_add_20_32_g442__6417
*949 tg/inc_add_20_32_g443__5477
*950 tg/inc_add_20_32_g444__2398
*951 tg/inc_add_20_32_g445__5107
*952 tg/inc_add_20_32_g446__6260
*953 tg/inc_add_20_32_g447__4319
*954 tg/inc_add_20_32_g448__8428
*955 tg/inc_add_20_32_g449__5526
*956 tg/inc_add_20_32_g450__6783
*957 tg/inc_add_20_32_g451
*958 tg/inc_add_20_32_g452__3680
*959 tg/inc_add_20_32_g453__1617
*960 tg/inc_add_20_32_g454__2802
*961 tg/inc_add_20_32_g455__1705
*962 tg/inc_add_20_32_g456__5122
*963 tg/inc_add_20_32_g457__8246
*964 tg/inc_add_20_32_g458__7098
*965 tg/inc_add_20_32_g459__6131
*966 tg/inc_add_20_32_g460
*967 tg/inc_add_20_32_g461
*968 tg/g2
*969 tg/g962


*PORTS

*139 I *C 35.525 70.47
*140 I *C 37.845 0
*141 I *C 36.685 70.47
*142 I *C 0 35.525
*143 I *C 0 32.335
*144 I *C 0 35.525
*145 I *C 0 32.335
*146 I *C 0 35.815
*147 I *C 30.885 0
*148 I *C 28.275 0
*149 I *C 51.185 0
*150 I *C 56.405 0
*151 I *C 56.985 0
*152 I *C 39.295 0
*153 I *C 73.37 40.745
*154 I *C 73.37 16.675
*155 I *C 73.37 35.525
*156 I *C 37.555 70.47
*157 I *C 73.37 37.555
*158 I *C 73.37 40.745
*159 O *C 33.495 0
*160 O *C 27.695 0
*161 O *C 0 27.695
*162 O *C 0 28.275
*163 O *C 0 27.405
*164 O *C 37.555 0
*165 O *C 36.105 0
*166 O *C 43.645 0
*167 O *C 45.965 0
*168 O *C 51.185 0
*169 O *C 44.225 0
*170 O *C 73.37 36.105
*171 O *C 73.37 24.215
*172 O *C 73.37 26.825
*173 O *C 73.37 31.755
*174 O *C 73.37 41.905
*175 O *C 73.37 45.385
*176 O *C 0 32.625
*177 O *C 0 34.655
*178 O *C 0 35.525
*179 O *C 0 32.045
*180 O *C 0 33.785
*181 O *C 31.175 0
*182 O *C 27.405 0
*183 O *C 50.895 0
*184 O *C 57.275 0
*185 O *C 73.37 14.935
*186 O *C 38.425 0
*187 O *C 73.37 40.745
*188 O *C 73.37 18.415
*189 O *C 73.37 32.915
*190 O *C 73.37 36.105
*191 O *C 73.37 37.555
*192 O *C 73.37 42.485
*193 O *C 0 18.995


*D_NET *1 0.0083688

*CONN
*I *498:Y O *C 66.555 40.165 *L 0 *D CLKBUFX2
*I *522:A I *C 23.925 11.745 *L 0.00164 *D MXI2X2

*CAP
1 *498:Y 3.67911e-05
2 *522:A 3.67911e-05
3 *1:2 9.0188e-05
4 *1:3 9.0188e-05
5 *1:4 0.000111936
6 *1:5 0.000111936
7 *1:6 0.00148467
8 *1:7 0.00148399
9 *1:8 7.46696e-05
10 *1:9 7.55984e-05
11 *1:10 0.00054763
12 *1:11 0.00054763
13 *1:12 4.49014e-05
14 *1:13 4.49014e-05
15 *1:14 4.28172e-05
16 *1:15 4.30438e-05
17 *1:16 0.000126141
18 *1:17 4.14579e-05
19 *1:18 0.000126141
20 *1:19 4.14579e-05
21 *1:20 5.61608e-05
22 *1:21 0.000121315
23 *1:22 5.61608e-05
24 *1:23 3.91019e-05
25 *1:24 0.000121315
26 *1:25 0.000582609
27 *1:26 0.000581431
28 *1:6 1.72e-05
29 *1:7 1.72e-05
30 *1:6 6.566e-05
31 *1:7 6.566e-05
32 *1:6 7.368e-05
33 *1:7 7.368e-05
34 *1:6 0.00036726
35 *1:7 0.00036726
36 *1:6 6.227e-05
37 *1:7 6.227e-05
38 *1:6 0.00013705
39 *1:7 0.00013705
40 *1:4 2.666e-05
41 *1:5 2.666e-05
42 *1:18 8.56e-06
43 *1:16 8.56e-06
44 *1:4 1.427e-05
45 *1:5 1.427e-05
46 *1:8 3.129e-05
47 *1:9 3.12899694e-05

*RES
1 *1:22 *498:Y 1.39991
2 *1:20 *1:22 0.372963
3 *1:21 *1:20 1.39991
4 *1:21 *1:24 0.994255
5 *1:23 *1:24 1.39991
6 *1:23 *1:12 0.124399
7 *1:13 *1:12 0.248564
8 *1:13 *1:10 0.124399
9 *1:11 *1:10 4.97151
10 *1:26 *1:11 0.124399
11 *1:25 *1:26 5.84137
12 *1:6 *1:25 1.39991
13 *1:7 *1:6 15.4114285
14 *1:4 *1:7 0.124399
15 *1:5 *1:4 1.49138
16 *1:5 *1:19 0.124399
17 *1:17 *1:19 0.248564
18 *1:17 *1:18 0.124399
19 *1:16 *1:18 1.11865
20 *1:15 *1:16 0.124399
21 *1:14 *1:15 0.248564
22 *1:8 *1:14 0.124399
23 *1:9 *1:8 0.870091
24 *1:2 *1:9 1.39991
25 *1:3 *1:2 0.621527
26 *522:A *1:3 1.39991
*END

*D_NET *2 0.000642758

*CONN
*I *769:Y O *C 46.255 61.045 *L 0 *D CLKBUFX2
*I *772:A I *C 44.515 58.435 *L 0.00172 *D DLY3X1

*CAP
1 *769:Y 1.31391e-05
2 *772:A 3.68009e-05
3 *2:2 4.16399e-05
4 *2:3 0.000102958
5 *2:4 0.00023456
6 *2:5 4.04194e-05
7 *2:6 0.000173242

*RES
1 *2:5 *769:Y 0.193329
2 *2:6 *2:5 1.39999998
3 *2:4 *2:6 0.870001
4 *2:3 *2:4 0.621429
5 *2:2 *2:3 0.248572
6 *772:A *2:2 1.39999998
*END

*D_NET *3 0.00150846

*CONN
*I *770:Y O *C 38.715 64.235 *L 0 *D CLKBUFX2
*I *774:A I *C 33.205 59.015 *L 0.00155 *D DLY2X1

*CAP
1 *770:Y 3.68e-05
2 *774:A 3.68e-05
3 *3:2 0.000101699
4 *3:3 0.000101699
5 *3:4 0.000125452
6 *3:5 0.000125452
7 *3:6 0.00049028
8 *3:7 0.00049028

*RES
1 *3:2 *770:Y 1.40001
2 *3:3 *3:2 0.994282
3 *3:6 *3:3 1.40001
4 *3:7 *3:6 2.3614285
5 *3:4 *3:7 1.40001
6 *3:5 *3:4 1.24287
7 *774:A *3:5 1.40001
*END

*D_NET *4 0.000920939

*CONN
*I *771:Y O *C 47.705 55.825 *L 0 *D CLKBUFX2
*I *776:A I *C 45.095 53.215 *L 0.00172 *D DLY3X1

*CAP
1 *771:Y 3.67987e-05
2 *776:A 3.67987e-05
3 *4:2 0.00020858
4 *4:3 0.00020858
5 *4:4 0.00015808
6 *4:5 0.00015808
7 *4:6 5.7009e-05
8 *4:7 5.7009e-05

*RES
1 *4:4 *771:Y 1.39999998
2 *4:5 *4:4 0.745715
3 *4:2 *4:5 1.39999998
4 *4:3 *4:2 1.11857
5 *4:7 *4:3 1.39999998
6 *4:6 *4:7 0.372858
7 *776:A *4:6 1.39999998
*END

*D_NET *5 0.00279248

*CONN
*I *772:Y O *C 46.255 58.725 *L 0 *D DLY3X1
*I *895:AN I *C 28.275 61.335 *L 0.00174 *D NOR2BX1

*CAP
1 *772:Y 3.67975e-05
2 *895:AN 3.67975e-05
3 *5:2 0.000250752
4 *5:3 0.000250752
5 *5:4 0.00029579
6 *5:5 0.000312641
7 *5:6 0.000165067
8 *5:7 0.000165067
9 *5:8 5.95276e-05
10 *5:9 5.8853e-05
11 *5:10 0.000502400664
12 *5:11 0.000486225
13 *5:12 8.58991e-05
14 *5:13 8.58991e-05

*RES
1 *5:3 *772:Y 1.40002
2 *5:3 *5:2 1.74002
3 *5:8 *5:2 1.40002
4 *5:9 *5:8 0.372869
5 *5:9 *5:6 0.124272
6 *5:7 *5:6 1.36715
7 *5:7 *5:4 0.124272
8 *5:5 *5:4 2.60998
9 *5:10 *5:5 0.248596
10 *5:11 *5:10 3.35571432
11 *5:13 *5:11 1.40002
12 *5:12 *5:13 0.621413
13 *895:AN *5:12 1.40002
*END

*D_NET *6 0.00387265

*CONN
*I *773:Y O *C 33.495 53.505 *L 0 *D DLY2X1
*I *891:AN I *C 14.355 61.335 *L 0.00174 *D NOR2BXL

*CAP
1 *773:Y 3.6799e-05
2 *891:AN 3.6799e-05
3 *6:2 0.0001876
4 *6:3 0.000188806
5 *6:4 0.000146716
6 *6:5 0.000146716
7 *6:6 0.000730779
8 *6:7 0.00073146
9 *6:8 0.000130208
10 *6:9 0.000129528
11 *6:11 3.24461e-05
12 *6:12 7.88662e-05
13 *6:13 8.00716e-05
14 *6:6 *139:256 0.00013419
15 *6:7 *139:254 0.00013419
16 *6:6 *139:254 0.00014708
17 *6:7 *139:255 0.000147079983
18 *6:6 *11:9 0.00012158
19 *6:7 *11:10 0.00012158
20 *6:6 *11:18 9.73e-06
21 *6:7 *11:16 9.72999959e-06
22 *6:6 *26:10 7.436e-05
23 *6:7 *26:8 7.436e-05
24 *6:6 *26:8 0.00012098
25 *6:7 *26:9 0.000120979991

*RES
1 *6:3 *773:Y 1.40003
2 *6:3 *6:2 1.2429
3 *6:2 *6:5 0.124255
4 *6:5 *6:4 1.36715
5 *6:12 *6:4 0.124255
6 *6:12 *6:13 0.37288
7 *6:8 *6:13 1.40003
8 *6:9 *6:8 0.74576
9 *6:9 *6:6 0.124255
10 *6:7 *6:6 7.45714283
11 *6:11 *891:AN 1.40003
12 *6:11 *6:7 1.40003
13 *6:10 *6:11 0.193096
*END

*D_NET *7 0.00028784

*CONN
*I *774:Y O *C 30.885 58.725 *L 0 *D DLY2X1
*I *883:AN I *C 30.595 61.335 *L 0.00174 *D NOR2BX1

*CAP
1 *774:Y 3.68e-05
2 *883:AN 3.68e-05
3 *7:2 5.75496e-05
4 *7:3 5.875e-05
5 *7:4 4.95702e-05
6 *7:5 4.83698e-05

*RES
1 *7:4 *774:Y 1.39999998
2 *7:3 *883:AN 1.39999998
3 *7:4 *7:5 0.372858
4 *7:2 *7:3 0.497144
5 *7:2 *7:5 0.124286
*END

*D_NET *8 0.000573219

*CONN
*I *775:Y O *C 10.875 58.725 *L 0 *D DLY3X1
*I *892:AN I *C 9.425 61.335 *L 0.00174 *D NOR2BX1

*CAP
1 *775:Y 3.68008e-05
2 *892:AN 3.68008e-05
3 *8:2 5.39907e-05
4 *8:3 5.39907e-05
5 *8:4 0.00012281
6 *8:5 0.00012281
7 *8:6 7.30095e-05
8 *8:7 7.30095e-05

*RES
1 *8:5 *775:Y 1.39999998
2 *8:5 *8:4 0.621429
3 *8:6 *8:4 1.39999998
4 *8:2 *892:AN 1.39999998
5 *8:7 *8:6 0.621429
6 *8:3 *8:2 0.497144
7 *8:3 *8:7 1.39999998
*END

*D_NET *9 0.00531703

*CONN
*I *776:Y O *C 46.835 53.505 *L 0 *D DLY3X1
*I *890:AN I *C 14.355 56.115 *L 0.00174 *D NOR2BX1

*CAP
1 *776:Y 3.67968e-05
2 *890:AN 3.67968e-05
3 *9:2 7.58619e-05
4 *9:3 7.58619e-05
5 *9:4 0.000119435
6 *9:5 0.000119435
7 *9:6 0.000940191
8 *9:7 0.00094088
9 *9:8 0.000123656
10 *9:9 0.000123656
11 *9:10 0.000349189
12 *9:11 0.000348514
13 *9:10 *409:7 0.00019778
14 *9:11 *409:8 0.000197780002
15 *9:10 *379:7 9.714e-05
16 *9:11 *379:8 9.714e-05
17 *9:8 *379:7 4.549e-05
18 *9:9 *379:8 4.54899991e-05
19 *9:10 *403:22 1.25e-05
20 *9:11 *403:20 1.25e-05
21 *9:10 *403:20 9.787e-05
22 *9:11 *403:21 9.787e-05
23 *9:4 *403:27 3.666e-05
24 *9:5 *403:26 3.66600064e-05
25 *9:10 *421:8 0.00017014
26 *9:11 *421:9 0.000170139997
27 *9:6 *419:3 0.00013489
28 *9:7 *419:4 0.00013489
29 *9:6 *419:4 0.00010979
30 *9:7 *419:7 0.000109790004
31 *9:4 *137:22 3.746e-05
32 *9:5 *137:21 3.746e-05
33 *9:4 *137:21 7.366e-05
34 *9:5 *137:20 7.36600051e-05

*RES
1 *9:5 *776:Y 1.40002
2 *9:5 *9:4 1.61568
3 *9:10 *9:4 1.40002
4 *9:11 *9:10 4.7229
5 *9:8 *9:11 0.124255
6 *9:9 *9:8 1.36717
7 *9:9 *9:6 0.124255
8 *9:7 *9:6 7.82999992
9 *9:2 *9:7 1.40002
10 *9:3 *9:2 0.497141
11 *890:AN *9:3 1.40002
*END

*D_NET *10 0.00102822

*CONN
*I *777:Y O *C 16.385 40.165 *L 0 *D DLY4X1
*I *896:AN I *C 11.745 43.065 *L 0.00174 *D NOR2BX1

*CAP
1 *777:Y 3.68e-05
2 *896:AN 3.68e-05
3 *10:2 6.66893e-05
4 *10:3 6.66893e-05
5 *10:4 8.91872e-05
6 *10:5 8.91872e-05
7 *10:6 0.00032143
8 *10:7 0.00032143

*RES
1 *10:5 *777:Y 1.4
2 *10:5 *10:4 0.621429
3 *10:7 *10:4 1.4
4 *10:2 *896:AN 1.4
5 *10:6 *10:7 1.98857141
6 *10:3 *10:2 0.621429
7 *10:3 *10:6 1.4
*END

*D_NET *11 0.00224556

*CONN
*I *778:Y O *C 28.855 56.115 *L 0 *D DLY3X1
*I *909:B I *C 27.405 58.725 *L 0.00167 *D NAND2XL
*I *907:A1 I *C 19.575 58.725 *L 0.00274 *D OAI21X1
*I *918:B0 I *C 24.505 60.755 *L 0.0017 *D OA21XL

*CAP
1 *778:Y 3.68007e-05
2 *909:B 3.68007e-05
3 *907:A1 3.68007e-05
4 *918:B0 3.68007e-05
5 *11:4 9.78902e-05
6 *11:5 0.00012271
7 *11:6 4.32492e-05
8 *11:7 9.01404e-05
9 *11:8 5.60807e-05
10 *11:9 8.89399e-05
11 *11:10 8.80589e-05
12 *11:11 0.000164069
13 *11:12 0.00016495
14 *11:14 0.000133742
15 *11:15 0.000133742
16 *11:16 3.49205e-05
17 *11:17 3.24489e-05
18 *11:18 4.30604e-05
19 *11:19 8.59598e-05
20 *11:9 *6:6 0.00012158
21 *11:10 *6:7 0.00012158
22 *11:18 *6:6 9.73e-06
23 *11:16 *6:7 9.72999959e-06
24 *11:9 *94:10 3.341e-05
25 *11:10 *94:11 3.341e-05
26 *11:11 *94:6 0.0001828
27 *11:12 *94:7 0.0001828
28 *11:4 *94:13 1.168e-05
29 *11:5 *94:14 1.1680009e-05

*RES
1 *11:19 *778:Y 1.40001
2 *11:7 *11:19 0.497135
3 *11:7 *11:6 0.248568
4 *11:14 *907:A1 1.40001
5 *11:8 *11:6 0.124284
6 *11:14 *11:15 0.745703
7 *11:5 *909:B 1.40001
8 *11:8 *11:5 0.497135
9 *11:12 *11:15 1.40001
10 *11:5 *11:4 0.994299
11 *11:12 *11:11 1.86428571
12 *11:9 *11:4 1.40001
13 *11:11 *11:16 0.124284
14 *11:10 *11:9 1.24287
15 *11:16 *11:18 0.248568
16 *11:18 *11:10 0.124284
17 *11:17 *918:B0 1.40001
18 *11:17 *11:18 1.40001
19 *11:13 *11:17 0.193068
*END

*D_NET *12 0.00115651

*CONN
*I *779:Y O *C 30.015 40.455 *L 0 *D DLY3X1
*I *884:AN I *C 23.055 43.065 *L 0.00174 *D NOR2BX1

*CAP
1 *779:Y 3.6803e-05
2 *884:AN 3.6803e-05
3 *12:2 0.00041656
4 *12:3 0.00041656
5 *12:4 5.15305e-05
6 *12:5 5.15305e-05
7 *12:6 3.90976e-05
8 *12:7 5.43972e-05
9 *12:8 5.32276e-05

*RES
1 *12:7 *779:Y 1.40002
2 *12:7 *12:8 0.37285
3 *12:6 *12:8 0.124269
4 *12:2 *12:6 1.40002
5 *12:5 *884:AN 1.40002
6 *12:3 *12:2 2.85857153
7 *12:4 *12:5 0.37285
8 *12:4 *12:3 1.40002
*END

*D_NET *13 0.00136779

*CONN
*I *780:Y O *C 36.395 58.725 *L 0 *D DLY2X1
*I *826:A I *C 29.725 63.945 *L 0.00178 *D DLY1X1

*CAP
1 *780:Y 3.67981e-05
2 *826:A 3.67981e-05
3 *13:2 0.000223051
4 *13:3 0.00016173
5 *13:4 0.000263328945
6 *13:5 0.000263328945
7 *13:6 0.000140579
8 *13:7 0.000140579
9 *13:8 0.000101591

*RES
1 *13:7 *780:Y 1.39999
2 *13:7 *13:6 0.621413
3 *13:4 *13:6 1.39999
4 *13:5 *13:4 2.2371428
5 *13:3 *13:5 1.39999
6 *13:3 *13:2 1.36715
7 *13:8 *13:2 0.621413
8 *826:A *13:8 1.39999
*END

*D_NET *14 0.000348328

*CONN
*I *781:Y O *C 38.135 45.385 *L 0 *D CLKBUFX2
*I *919:A0 I *C 36.395 45.385 *L 0.00271 *D OAI21X1

*CAP
1 *781:Y 3.67996e-05
2 *919:A0 3.67996e-05
3 *14:4 3.24496e-05
4 *14:5 8.069e-05
5 *14:6 4.04503e-05
6 *14:7 4.04503e-05
7 *14:8 8.069e-05

*RES
1 *14:6 *781:Y 1.39999998
2 *14:3 *14:7 0.18284
3 *14:6 *14:7 0.124286
4 *14:8 *14:7 1.39999998
5 *14:5 *14:8 0.745715
6 *14:4 *919:A0 1.39999998
7 *14:4 *14:5 1.39999998
8 *14:2 *14:4 0.193051
*END

*D_NET *15 0.00123945

*CONN
*I *649:Y O *C 48.575 45.675 *L 0 *D DLY2X1
*I *696:D I *C 41.325 42.775 *L 0.00164 *D DFFQXL

*CAP
1 *649:Y 3.68e-05
2 *696:D 3.68e-05
3 *15:2 8.43213e-05
4 *15:3 8.36421e-05
5 *15:5 0.000227089453
6 *15:6 0.000227089453
7 *15:7 7.83404e-05
8 *15:8 7.76612e-05
9 *15:9 0.000177631
10 *15:10 0.000177631
11 *15:11 3.24513e-05

*RES
1 *15:5 *696:D 1.40001
2 *15:5 *15:6 1.24287
3 *15:7 *15:6 1.40001
4 *15:7 *15:8 0.869987
5 *15:8 *15:9 0.124284
6 *15:9 *15:10 1.86428571
7 *15:3 *15:10 0.124284
8 *15:3 *15:2 0.372851
9 *15:11 *15:2 1.40001
10 *15:11 *649:Y 1.40001
11 *15:4 *15:11 0.0300113
*END

*D_NET *16 0.000344281

*CONN
*I *650:Y O *C 48.865 14.355 *L 0 *D DLY2X1
*I *690:D I *C 48.865 16.675 *L 0.0016 *D DFFQX1

*CAP
1 *650:Y 3.68011e-05
2 *690:D 3.68011e-05
3 *16:2 0.00013534
4 *16:3 0.00013534

*RES
1 *16:3 *690:D 1.39999998
2 *16:2 *16:3 0.994287
3 *650:Y *16:2 1.39999998
*END

*D_NET *17 0.00121256

*CONN
*I *782:Y O *C 56.985 48.865 *L 0 *D DLY1X4
*I *795:A I *C 52.925 53.505 *L 0.00172 *D CLKBUFX2

*CAP
1 *782:Y 3.68004e-05
2 *795:A 3.68004e-05
3 *17:2 6.6461e-05
4 *17:3 6.6461e-05
5 *17:4 7.91588e-05
6 *17:5 7.79602e-05
7 *17:6 8.04094e-05
8 *17:7 8.15788e-05
9 *17:8 0.00013057
10 *17:9 0.0001306
11 *17:10 0.00021288
12 *17:11 0.00021288

*RES
1 *17:3 *782:Y 1.4
2 *17:3 *17:2 0.497154
3 *17:10 *17:2 1.4
4 *17:4 *795:A 1.4
5 *17:11 *17:10 1.74000001
6 *17:5 *17:4 0.372846
7 *17:7 *17:11 1.4
8 *17:8 *17:5 0.124282
9 *17:7 *17:6 0.372846
10 *17:9 *17:8 0.994282
11 *17:9 *17:6 0.124282
*END

*D_NET *18 0.00384327

*CONN
*I *783:Y O *C 11.455 19.575 *L 0 *D DLY2X1
*I *959:A I *C 16.675 54.085 *L 0.00152 *D NAND4XL
*I *908:A I *C 14.935 48.575 *L 0.00338 *D ADDHX1

*CAP
1 *783:Y 3.68004e-05
2 *959:A 3.68004e-05
3 *908:A 3.68004e-05
4 *18:3 0.0003953
5 *18:4 0.000424
6 *18:5 0.000338689
7 *18:6 0.00033986
8 *18:7 0.000104048
9 *18:8 0.000104048
10 *18:9 9.86454e-05
11 *18:10 0.000146166
12 *18:11 0.000114852
13 *18:12 7.89125e-05
14 *18:13 0.000110233
15 *18:14 0.00019821
16 *18:15 0.00019777
17 *18:16 7.66027e-05
18 *18:17 0.000221268
19 *18:18 0.000221268
20 *18:19 4.04688e-05
21 *18:20 4.04688e-05
22 *18:21 3.86249e-05
23 *18:22 0.000122209
24 *18:23 0.000122209
25 *18:24 5.47024e-05
26 *18:25 7.2158e-05
27 *18:26 7.2158e-05

*RES
1 *18:26 *959:A 1.4
2 *18:25 *18:26 0.497128
3 *18:17 *18:25 1.4
4 *18:18 *18:17 1.11856
5 *18:24 *18:18 1.4
6 *18:14 *18:24 0.248564
7 *18:15 *908:A 1.4
8 *18:15 *18:14 1.61569
9 *18:16 *18:15 0.497128
10 *18:10 *18:16 0.372872
11 *18:11 *18:10 1.24287
12 *18:7 *18:11 0.124308
13 *18:8 *18:7 0.994308
14 *18:8 *18:12 0.124308
15 *18:13 *18:12 0.621436
16 *18:3 *18:13 0.372872
17 *18:4 *18:3 3.48000002
18 *18:9 *18:4 0.745692
19 *18:21 *18:9 0.248564
20 *18:21 *18:23 0.124308
21 *18:22 *18:23 0.994308
22 *18:20 *18:22 0.124308
23 *18:19 *18:20 0.248564
24 *18:5 *18:19 0.124308
25 *18:6 *18:5 3.48000002
26 *783:Y *18:6 1.4
*END

*D_NET *19 0.00379149

*CONN
*I *784:Y O *C 14.355 32.625 *L 0 *D DLY2X1
*I *906:A I *C 6.235 50.895 *L 0.00157 *D NAND2XL
*I *905:A0 I *C 6.815 50.605 *L 0.00157 *D OA21XL
*I *959:D I *C 17.545 53.795 *L 0.00166 *D NAND4XL

*CAP
1 *784:Y 3.67975e-05
2 *906:A 2.56594e-05
3 *905:A0 5.29393e-05
4 *959:D 3.67975e-05
5 *19:4 0.000281719844
6 *19:5 0.000281719844
7 *19:6 0.000211787
8 *19:7 0.000211787
9 *19:8 0.00010719
10 *19:9 0.000107869
11 *19:10 0.000153569
12 *19:11 0.000179001
13 *19:12 0.000231269
14 *19:13 0.000231269
15 *19:14 5.85578e-05
16 *19:15 0.000245791
17 *19:16 0.000261451
18 *19:17 8.58378e-05
19 *19:18 8.46686e-05
20 *19:19 6.65621e-05
21 *19:20 5.2071e-05
22 *19:21 0.0002595
23 *19:22 0.0002595
24 *19:22 *40:3 4.751e-05
25 *19:21 *40:4 4.751e-05
26 *19:22 *40:4 8.657e-05
27 *19:21 *40:5 8.65700041e-05

*RES
1 *19:17 *784:Y 1.40002
2 *19:17 *19:18 0.621431
3 *19:5 *19:18 0.124269
4 *19:5 *19:4 2.7343
5 *19:15 *19:4 0.124269
6 *19:22 *959:D 1.40002
7 *19:15 *19:16 2.23714
8 *19:21 *19:22 2.85857153
9 *19:16 *19:19 0.248581
10 *19:10 *19:21 1.40002
11 *19:19 *19:20 0.37285
12 *19:11 *19:10 1.36713
13 *19:11 *19:20 1.40002
14 *19:14 *19:11 0.37285
15 *19:14 *19:12 0.124269
16 *19:13 *19:12 1.98856
17 *19:8 *19:13 0.124269
18 *19:9 *19:8 0.870011
19 *19:7 *19:9 1.40002
20 *19:7 *19:6 1.61571
21 *905:A0 *19:6 1.40002
22 *906:A *905:A0 0.386677
*END

*D_NET *20 0.000384031

*CONN
*I *651:Y O *C 25.955 22.185 *L 0 *D DLY2X1
*I *687:D I *C 24.505 25.085 *L 0.0016 *D DFFQX1

*CAP
1 *651:Y 5.13207e-05
2 *687:D 3.6799e-05
3 *20:2 9.32100781e-05
4 *20:3 9.20097e-05
5 *20:4 7.16196e-05
6 *20:5 3.90704e-05

*RES
1 *20:4 *651:Y 0.773337
2 *20:2 *687:D 1.39999998
3 *20:5 *20:4 1.39999998
4 *20:3 *20:2 0.994287
5 *20:3 *20:5 0.124286
*END

*D_NET *21 0.00033286

*CONN
*I *652:Y O *C 36.685 19.575 *L 0 *D DLY2X1
*I *688:D I *C 36.395 21.895 *L 0.0016 *D DFFQX1

*CAP
1 *652:Y 3.67995e-05
2 *688:D 3.67995e-05
3 *21:2 7.75599e-05
4 *21:3 7.873e-05
5 *21:4 5.20698e-05
6 *21:5 5.08997e-05

*RES
1 *21:4 *652:Y 1.39999998
2 *21:3 *688:D 1.39999998
3 *21:4 *21:5 0.372858
4 *21:2 *21:3 0.621429
5 *21:2 *21:5 0.124286
*END

*D_NET *22 9.378e-05

*CONN
*I *785:Y O *C 38.715 61.335 *L 0 *D DLY2X1
*I *899:AN I *C 37.845 61.335 *L 0.00174 *D NOR2BXL

*CAP
1 *22:2 4.689e-05
2 *22:3 4.689e-05

*RES
1 *22:3 *785:Y 1.39999998
2 *22:2 *22:3 0.372858
3 *899:AN *22:2 1.39999998
*END

*D_NET *23 0.00534796

*CONN
*I *499:Y O *C 62.785 9.135 *L 0 *D DLY2X1
*I *505:A I *C 14.935 6.525 *L 0.00172 *D CLKBUFX2

*CAP
1 *499:Y 3.67967e-05
2 *505:A 3.67967e-05
3 *23:2 0.000103955
4 *23:3 0.000103955
5 *23:4 0.000170824
6 *23:5 0.000169937
7 *23:6 0.000359943
8 *23:7 0.000360149
9 *23:8 0.00067586
10 *23:9 0.000675633
11 *23:10 0.000141999
12 *23:11 0.000141999
13 *23:12 0.000181188
14 *23:13 0.000181188
15 *23:14 4.10353e-05
16 *23:15 4.16437e-05
17 *23:16 4.16437e-05
18 *23:4 *138:8 4.152e-05
19 *23:5 *138:9 4.152e-05
20 *23:4 *138:10 1.914e-05
21 *23:5 *138:11 1.914e-05
22 *23:6 *138:12 2.437e-05
23 *23:7 *138:13 2.437e-05
24 *23:6 *138:14 4.312e-05
25 *23:7 *138:15 4.312e-05
26 *23:6 *138:16 5.487e-05
27 *23:7 *138:17 5.487e-05
28 *23:8 *138:18 0.00023016
29 *23:9 *138:19 0.00023016
30 *23:10 *138:10 2.919e-05
31 *23:11 *138:11 2.919e-05
32 *23:12 *138:20 4.129e-05
33 *23:13 *138:18 4.129e-05
34 *23:12 *138:18 7.62e-06
35 *23:13 *138:19 7.61999262e-06
36 *23:8 *108:7 6.686e-05
37 *23:9 *108:8 6.686e-05
38 *23:8 *108:7 0.00015386
39 *23:9 *108:8 0.000153860002
40 *23:4 *198:14 4.503e-05
41 *23:5 *198:12 4.503e-05
42 *23:6 *198:10 6.54e-05
43 *23:7 *198:8 6.54e-05
44 *23:8 *198:6 3.484e-05
45 *23:9 *198:4 3.484e-05
46 *23:10 *198:11 3.459e-05
47 *23:11 *198:9 3.459e-05
48 *23:12 *198:7 4.985e-05
49 *23:13 *198:5 4.9849994e-05

*RES
1 *23:16 *499:Y 1.40005
2 *23:15 *23:16 0.24864
3 *23:4 *23:15 1.40005
4 *23:5 *23:4 2.36138
5 *23:10 *23:5 0.12432
6 *23:11 *23:10 1.86424
7 *23:11 *23:6 0.12432
8 *23:7 *23:6 4.72291
9 *23:12 *23:7 0.12432
10 *23:13 *23:12 2.4857
11 *23:13 *23:8 0.12432
12 *23:9 *23:8 9.0728569
13 *23:14 *23:9 0.12432
14 *23:2 *23:14 1.40005
15 *23:3 *23:2 0.497141
16 *505:A *23:3 1.40005
*END

*D_NET *24 0.00033192

*CONN
*I *786:Y O *C 62.785 53.505 *L 0 *D DLY2X1
*I *880:AN I *C 63.075 56.115 *L 0.00174 *D NOR2BXL

*CAP
1 *786:Y 3.68005e-05
2 *880:AN 3.68005e-05
3 *24:2 5.70498e-05
4 *24:3 5.82503e-05
5 *24:4 7.09106e-05
6 *24:5 7.211e-05

*RES
1 *24:5 *880:AN 1.39999998
2 *24:4 *24:5 0.497144
3 *24:2 *24:4 0.124286
4 *24:3 *24:2 0.372858
5 *786:Y *24:3 1.39999998
*END

*D_NET *25 0.00583476

*CONN
*I *500:Y O *C 62.785 24.795 *L 0 *D DLY2X1
*I *506:A I *C 19.285 14.355 *L 0.00172 *D CLKBUFX2

*CAP
1 *500:Y 3.6795e-05
2 *506:A 3.6795e-05
3 *25:2 9.73614e-05
4 *25:3 8.29327e-05
5 *25:4 0.000189829
6 *25:5 0.000204257
7 *25:6 0.000449011
8 *25:7 0.00044921
9 *25:8 4.68094e-05
10 *25:9 4.5932e-05
11 *25:10 0.00018381
12 *25:11 0.00018381
13 *25:12 0.000307
14 *25:13 0.000307
15 *25:14 0.000160841
16 *25:15 0.000160841
17 *25:16 0.000238167
18 *25:17 0.000238167
19 *25:18 0.000191919
20 *25:19 0.000191919
21 *25:20 0.000177203
22 *25:21 0.000154117
23 *25:22 0.000176291
24 *25:23 0.00015435
25 *25:24 0.000174845
26 *25:25 0.000174845
27 *25:8 *171:8 3.751e-05
28 *25:9 *171:9 3.751e-05
29 *25:10 *171:8 6.457e-05
30 *25:11 *171:9 6.45700037e-05
31 *25:16 *139:137 4.972e-05
32 *25:17 *139:138 4.972e-05
33 *25:16 *139:138 2.342e-05
34 *25:17 *139:139 2.342e-05
35 *25:22 *139:139 2.855e-05
36 *25:20 *139:140 2.855e-05
37 *25:22 *139:140 2.113e-05
38 *25:20 *139:141 2.113e-05
39 *25:23 *139:138 3.932e-05
40 *25:21 *139:139 3.93200013e-05
41 *25:6 *167:14 7.453e-05
42 *25:7 *167:15 7.453e-05
43 *25:18 *167:15 6.214e-05
44 *25:19 *167:16 6.214e-05
45 *25:6 *167:15 0.00010947
46 *25:7 *167:16 0.000109469998

*RES
1 *25:25 *500:Y 1.39997
2 *25:24 *25:25 1.49141
3 *25:8 *25:24 1.39997
4 *25:9 *25:8 0.372884
5 *25:10 *25:9 0.124316
6 *25:11 *25:10 2.11286
7 *25:11 *25:6 0.124316
8 *25:7 *25:6 4.22571421
9 *25:7 *25:18 0.124316
10 *25:19 *25:18 1.98854
11 *25:12 *25:19 0.124316
12 *25:13 *25:12 2.73431
13 *25:13 *25:14 0.124316
14 *25:15 *25:14 1.36715
15 *25:16 *25:15 0.124316
16 *25:17 *25:16 2.36142
17 *25:23 *25:17 0.124316
18 *25:21 *25:23 1.73997
19 *25:21 *25:22 0.124316
20 *25:3 *506:A 1.39997
21 *25:20 *25:22 1.98854
22 *25:3 *25:2 0.745703
23 *25:4 *25:20 1.39997
24 *25:5 *25:2 0.248568
25 *25:5 *25:4 1.98854
*END

*D_NET *26 0.00267277

*CONN
*I *787:Y O *C 17.545 63.945 *L 0 *D DLY2X1
*I *949:A I *C 21.605 53.795 *L 0.00264 *D NAND3X1
*I *921:A I *C 18.705 58.725 *L 0.00157 *D NAND2XL
*I *918:A0 I *C 23.635 61.045 *L 0.00157 *D OA21XL

*CAP
1 *787:Y 3.67998e-05
2 *949:A 3.67998e-05
3 *921:A 3.67998e-05
4 *918:A0 1.28223e-05
5 *26:4 5.55216e-05
6 *26:5 5.55216e-05
7 *26:6 3.06503e-05
8 *26:7 3.06503e-05
9 *26:8 0.000171547
10 *26:9 0.00012161
11 *26:10 8.375e-05
12 *26:11 0.00016411
13 *26:12 0.000118179
14 *26:13 9.28215e-05
15 *26:16 5.46973e-05
16 *26:17 6.59591e-05
17 *26:18 6.59591e-05
18 *26:19 3.37992e-05
19 *26:20 0.00030347
20 *26:21 0.00030347
21 *26:22 4.01015e-05
22 *26:10 *6:6 7.436e-05
23 *26:8 *6:7 7.436e-05
24 *26:8 *6:6 0.00012098
25 *26:9 *6:7 0.000120979991
26 *26:13 *367:3 8.486e-05
27 *26:11 *367:4 8.486e-05
28 *26:11 *367:3 9.867e-05
29 *26:12 *367:4 9.86699907e-05

*RES
1 *26:16 *787:Y 1.40002
2 *26:16 *26:18 0.248579
3 *26:17 *26:18 0.372869
4 *26:22 *918:A0 0.193339
5 *26:12 *921:A 1.40002
6 *26:17 *26:13 0.248579
7 *26:6 *26:22 1.40002
8 *26:15 *26:6 0.182867
9 *26:12 *26:11 0.994274
10 *26:11 *26:13 0.869985
11 *26:7 *26:6 0.12429
12 *26:9 *26:11 1.40002
13 *26:10 *26:7 1.40002
14 *26:9 *26:8 1.24285
15 *26:8 *26:10 0.745695
16 *26:5 *949:A 1.40002
17 *26:21 *26:8 1.40002
18 *26:5 *26:4 0.372869
19 *26:20 *26:21 2.73428583
20 *26:19 *26:4 1.40002
21 *26:19 *26:20 1.40002
22 *26:14 *26:19 0.193047
*END

*D_NET *27 0.00586517

*CONN
*I *788:Y O *C 66.845 19.285 *L 0 *D CLKBUFX2
*I *829:A I *C 31.465 37.845 *L 0.00178 *D DLY1X1

*CAP
1 *788:Y 1.2816e-05
2 *829:A 3.67996e-05
3 *27:2 0.000374552
4 *27:3 0.00037335
5 *27:4 9.71489e-05
6 *27:5 9.71489e-05
7 *27:6 0.000124621
8 *27:7 0.000125818
9 *27:8 0.00040614
10 *27:9 0.00040614
11 *27:10 5.95189e-05
12 *27:11 5.86698e-05
13 *27:12 0.00016967
14 *27:13 0.00016967
15 *27:14 7.9877e-05
16 *27:15 9.65477e-05
17 *27:16 0.000112797
18 *27:17 0.000112797
19 *27:18 0.000265591
20 *27:19 0.000265759
21 *27:20 0.000299199
22 *27:21 0.000282529
23 *27:22 0.000121938
24 *27:23 0.000121938
25 *27:24 0.000130881
26 *27:25 0.000179183
27 *27:26 4.66719e-05
28 *27:27 4.12616e-05
29 *27:28 0.000101667
30 *27:29 4.66719e-05
31 *27:30 5.33711e-05
32 *27:31 0.000144521
33 *27:32 0.000144521
34 *27:33 4.00965e-05
35 *27:14 *189:8 8.282e-05
36 *27:15 *189:9 8.282e-05
37 *27:16 *189:8 8.528e-05
38 *27:17 *189:9 8.528e-05
39 *27:12 *189:8 1.364e-05
40 *27:13 *189:9 1.364e-05
41 *27:18 *189:8 9.465e-05
42 *27:19 *189:9 9.465e-05
43 *27:20 *189:8 5.625e-05
44 *27:21 *189:9 5.62500006e-05

*RES
1 *27:33 *788:Y 0.193324
2 *27:7 *27:33 1.39998
3 *27:7 *27:6 1.11858
4 *27:5 *27:6 0.124312
5 *27:5 *27:4 0.497135
6 *27:4 *27:3 0.124312
7 *27:3 *27:2 3.48
8 *27:10 *27:2 1.39998
9 *27:11 *27:10 0.37288
10 *27:12 *27:11 0.124312
11 *27:13 *27:12 1.61572
12 *27:13 *27:14 0.124312
13 *27:15 *27:14 0.870015
14 *27:20 *27:15 0.248568
15 *27:21 *27:20 2.98287
16 *27:21 *27:18 0.124312
17 *27:19 *27:18 2.7343
18 *27:19 *27:16 0.124312
19 *27:17 *27:16 1.24284
20 *27:17 *27:32 0.124312
21 *27:31 *27:32 1.24284
22 *27:8 *27:31 0.124312
23 *27:9 *27:8 3.72857141
24 *27:9 *27:27 0.124312
25 *27:28 *27:27 1.39998
26 *27:28 *27:25 0.870015
27 *27:25 *27:24 0.870015
28 *27:24 *27:30 0.37288
29 *27:29 *27:30 1.39998
30 *27:22 *829:A 1.39998
31 *27:26 *27:29 0.248568
32 *27:23 *27:22 0.621448
33 *27:23 *27:26 1.39998
*END

*D_NET *28 0.00744694

*CONN
*I *789:Y O *C 66.555 34.945 *L 0 *D CLKBUFX2
*I *813:A I *C 30.885 45.675 *L 0.00172 *D CLKBUFX2

*CAP
1 *789:Y 3.68034e-05
2 *813:A 3.68034e-05
3 *28:2 0.000384586
4 *28:3 0.000385439
5 *28:4 9.62579e-05
6 *28:5 9.62579e-05
7 *28:6 4.42682e-05
8 *28:7 4.34229e-05
9 *28:8 0.000494649375
10 *28:9 0.000494649375
11 *28:10 6.94706e-05
12 *28:11 6.94706e-05
13 *28:12 0.000188719
14 *28:13 0.000188719
15 *28:14 8.30718e-05
16 *28:15 8.30718e-05
17 *28:8 *187:25 5.657e-05
18 *28:9 *187:26 5.657e-05
19 *28:8 *187:27 4.696e-05
20 *28:9 *187:28 4.696e-05
21 *28:8 *187:29 0.0003591
22 *28:9 *187:22 0.000359099999
23 *28:6 *190 3.727e-05
24 *28:7 *190:12 3.727e-05
25 *28:2 *190:20 3.45e-05
26 *28:3 *190:19 3.45e-05
27 *28:2 *190:19 2.14e-05
28 *28:3 *190:18 2.14e-05
29 *28:4 *190 5.291e-05
30 *28:5 *190:12 5.29099972e-05
31 *28:2 *191:12 0.00040055
32 *28:3 *191:13 0.00040055
33 *28:2 *191:13 0.0001228
34 *28:3 *191:14 0.000122800008
35 *28:2 *155:6 8.493e-05
36 *28:3 *155:7 8.493e-05
37 *28:2 *155:4 0.00037346
38 *28:3 *155:5 0.00037346
39 *28:2 *155:8 3.952e-05
40 *28:3 *155:9 3.952e-05
41 *28:2 *155:10 5.169e-05
42 *28:3 *155:11 5.169e-05
43 *28:4 *155:2 3.071e-05
44 *28:5 *155:3 3.07099958e-05
45 *28:13 *388:2 0.00035676
46 *28:12 *388:3 0.000356760008
47 *28:13 *140:155 0.00019687
48 *28:12 *140:156 0.00019687
49 *28:13 *140:157 5.964e-05
50 *28:12 *140:158 5.96400126e-05

*RES
1 *28:14 *789:Y 1.40002
2 *28:14 *28:15 0.372846
3 *28:6 *28:15 1.40002
4 *28:7 *28:6 0.372846
5 *28:4 *28:7 0.124282
6 *28:5 *28:4 1.3671
7 *28:5 *28:2 0.124282
8 *28:3 *28:2 7.70571423
9 *28:12 *28:3 1.40002
10 *28:12 *28:13 3.60429
11 *28:8 *28:13 1.40002
12 *28:11 *813:A 1.40002
13 *28:9 *28:8 5.84149
14 *28:10 *28:11 0.62141
15 *28:10 *28:9 1.40002
*END

*D_NET *29 0.00263189

*CONN
*I *653:Y O *C 66.845 38.135 *L 0 *D CLKBUFX2
*I *751:A0 I *C 55.535 45.385 *L 0.00158 *D AOI21XL
*I *753:A I *C 55.825 45.385 *L 0.00162 *D NOR2XL
*I *752:B I *C 53.215 40.165 *L 0.00284 *D NAND2BX1

*CAP
1 *653:Y 1.28183e-05
2 *751:A0 1.31398e-05
3 *753:A 4.04195e-05
4 *752:B 3.68016e-05
5 *29:4 0.000136207
6 *29:5 0.000136207
7 *29:6 9.06523e-05
8 *29:7 8.94816e-05
9 *29:8 7.52815e-05
10 *29:9 7.64523e-05
11 *29:10 0.000119289
12 *29:11 0.00013378
13 *29:13 3.24501e-05
14 *29:14 0.000120449
15 *29:15 0.0003293
16 *29:16 0.000241808
17 *29:17 0.000102873
18 *29:18 4.89817e-05
19 *29:19 0.000102873
20 *29:20 4.98309e-05
21 *29:21 4.00979e-05
22 *29:22 5.47602e-05
23 *29:20 *187:19 1.25e-05
24 *29:18 *187:20 1.25e-05
25 *29:16 *187:10 0.00014438
26 *29:15 *187:11 0.00014438
27 *29:16 *187:12 4.561e-05
28 *29:15 *187:13 4.561e-05
29 *29:15 *187:12 2.632e-05
30 *29:14 *187:13 2.632e-05
31 *29:15 *187:13 1.397e-05
32 *29:14 *187:14 1.397e-05
33 *29:19 *187:8 2.113e-05
34 *29:17 *187:9 2.113e-05
35 *29:20 *187:8 4.35e-06
36 *29:18 *187:9 4.35e-06
37 *29:16 *187:8 5.71e-06
38 *29:15 *187:9 5.71000676e-06

*RES
1 *29:21 *653:Y 0.193347
2 *29:22 *29:21 1.39999
3 *751:A0 *753:A 0.193347
4 *29:11 *29:22 0.248556
5 *29:6 *753:A 1.39999
6 *29:11 *29:10 0.870015
7 *29:7 *29:6 0.497158
8 *29:20 *29:10 1.39999
9 *29:7 *29:4 0.124301
10 *29:18 *29:20 0.372857
11 *29:5 *29:4 1.36713
12 *29:18 *29:19 0.124301
13 *29:8 *29:5 0.124301
14 *29:17 *29:19 0.994271
15 *29:9 *29:8 0.372857
16 *29:16 *29:17 0.124301
17 *29:15 *29:9 1.39999
18 *29:15 *29:16 2.98285723
19 *29:14 *29:15 1.11857
20 *29:13 *752:B 1.39999
21 *29:13 *29:14 1.39999
22 *29:12 *29:13 0.0299942
*END

*D_NET *30 0.006941

*CONN
*I *790:Y O *C 66.845 61.045 *L 0 *D CLKBUFX2
*I *963:A I *C 16.675 58.725 *L 0.00157 *D NAND2XL
*I *914:A I *C 15.225 58.725 *L 0.00157 *D NAND2XL
*I *911:A0 I *C 11.455 61.045 *L 0.00271 *D OAI21X1

*CAP
1 *790:Y 3.67902e-05
2 *963:A 3.67902e-05
3 *914:A 3.67902e-05
4 *911:A0 3.67902e-05
5 *30:4 0.000154514
6 *30:5 0.000154514
7 *30:6 0.00025697
8 *30:7 0.000229145
9 *30:8 0.000165238
10 *30:9 0.000165238
11 *30:10 0.000114059
12 *30:11 0.000141884
13 *30:12 4.76367e-05
14 *30:13 4.76367e-05
15 *30:14 8.63812e-05
16 *30:15 8.63812e-05
17 *30:16 7.80265e-05
18 *30:17 7.68295e-05
19 *30:18 0.000132259
20 *30:19 0.000133456
21 *30:20 0.00160096
22 *30:21 0.00160096
23 *30:21 *387:10 1.459e-05
24 *30:20 *387:11 1.459e-05
25 *30:21 *387:8 0.00022038
26 *30:20 *387:9 0.000220380003
27 *30:21 *139:262 2.673e-05
28 *30:20 *139:257 2.673e-05
29 *30:21 *139:257 5.835e-05
30 *30:20 *139:258 5.835e-05
31 *30:21 *139:258 5.925e-05
32 *30:20 *139:259 5.925e-05
33 *30:17 *139:265 1.256e-05
34 *30:16 *139:252 1.256e-05
35 *30:17 *139:252 7.196e-05
36 *30:16 *139:253 7.19599994e-05
37 *30:10 *94:6 0.00016843
38 *30:11 *94:7 0.00016843
39 *30:11 *94:22 2.337e-05
40 *30:6 *94:21 2.33700143e-05
41 *30:10 *378:7 8.45e-06
42 *30:11 *378:8 8.45e-06
43 *30:10 *378:8 6.209e-05
44 *30:11 *378:9 6.209e-05
45 *30:11 *378:8 4.23e-06
46 *30:6 *378:9 4.23e-06
47 *30:12 *378:14 2.489e-05
48 *30:13 *378:13 2.489e-05
49 *30:14 *378:14 5.62e-06
50 *30:15 *378:13 5.6199959e-06

*RES
1 *30:5 *790:Y 1.39994
2 *30:5 *30:4 1.73987
3 *30:21 *30:4 1.39994
4 *30:20 *30:21 19.3885708
5 *30:19 *30:20 1.39994
6 *30:18 *30:19 1.3671
7 *30:17 *30:18 0.124255
8 *30:13 *963:A 1.39994
9 *30:16 *30:17 0.870083
10 *30:15 *914:A 1.39994
11 *30:13 *30:12 0.497021
12 *30:10 *30:16 1.39994
13 *30:15 *30:14 0.497021
14 *30:11 *30:12 1.39994
15 *30:11 *30:10 1.98868
16 *30:6 *30:14 1.39994
17 *30:6 *30:11 0.621573
18 *30:8 *911:A0 1.39994
19 *30:7 *30:6 1.61562
20 *30:9 *30:8 0.621573
21 *30:9 *30:7 1.39994
*END

*D_NET *31 0.00265906

*CONN
*I *654:Y O *C 66.555 22.475 *L 0 *D CLKBUFX2
*I *758:B I *C 63.365 27.405 *L 0.00171 *D NOR2XL
*I *738:C0 I *C 54.955 22.765 *L 0.00286 *D OAI211X1
*I *760:B I *C 52.345 27.405 *L 0.00167 *D NAND2XL
*I *747:B I *C 54.085 24.795 *L 0.00168 *D OR4X2

*CAP
1 *654:Y 3.68013e-05
2 *758:B 3.68013e-05
3 *738:C0 3.68013e-05
4 *760:B 3.68013e-05
5 *747:B 3.68013e-05
6 *31:5 7.55279e-05
7 *31:6 7.55279e-05
8 *31:7 0.00020634
9 *31:8 0.000141105
10 *31:9 9.76905e-05
11 *31:10 0.000211633
12 *31:11 0.000211633
13 *31:12 0.000391642
14 *31:13 0.00040056
15 *31:14 4.90745e-05
16 *31:15 0.000133092
17 *31:16 0.000132212
18 *31:19 0.000101462
19 *31:20 4.10614e-05
20 *31:21 0.000101462
21 *31:22 3.24494e-05
22 *31:23 4.01507e-05
23 *31:24 3.24494e-05

*RES
1 *31:5 *760:B 1.4
2 *31:6 *31:5 0.497118
3 *31:19 *31:6 1.4
4 *31:19 *31:21 0.745705
5 *31:9 *31:21 1.4
6 *31:18 *31:24 0.0969048
7 *31:24 *654:Y 1.4
8 *31:7 *747:B 1.4
9 *31:7 *31:9 0.621412
10 *31:15 *31:24 1.4
11 *31:8 *31:7 0.745705
12 *31:10 *758:B 1.4
13 *31:16 *31:15 1.11858
14 *31:20 *31:8 1.4
15 *31:11 *31:10 1.98858
16 *31:16 *31:23 0.124293
17 *31:14 *31:20 0.124293
18 *31:12 *31:11 1.4
19 *31:12 *31:23 0.248587
20 *31:14 *31:13 0.37288
21 *31:13 *31:12 3.60428572
22 *31:22 *738:C0 1.4
23 *31:22 *31:13 1.4
24 *31:17 *31:22 0.19304
*END

*D_NET *32 0.00033202

*CONN
*I *500:A I *C 65.105 24.505 *L 0.00155 *D DLY2X1
*I *501:Y O *C 64.235 27.985 *L 0 *D CLKBUFX3

*CAP
1 *500:A 3.68003e-05
2 *501:Y 3.68003e-05
3 *32:2 0.00012921
4 *32:3 0.00012921

*RES
1 *32:3 *501:Y 1.39999998
2 *32:2 *32:3 0.870001
3 *500:A *32:2 1.39999998
*END

*D_NET *33 0.00158858

*CONN
*I *655:Y O *C 52.055 34.945 *L 0 *D CLKBUFX2
*I *742:A I *C 47.995 29.9675 *L 0.00156 *D XNOR2XL
*I *744:A I *C 49.735 27.405 *L 0.00157 *D NAND2XL

*CAP
1 *655:Y 1.28206e-05
2 *742:A 3.67988e-05
3 *744:A 5.1318e-05
4 *33:3 0.000259480469
5 *33:4 0.000259480469
6 *33:5 0.00018268
7 *33:6 0.00018268
8 *33:7 0.000119911
9 *33:8 0.000172939
10 *33:9 9.99793e-05
11 *33:10 7.16219e-05
12 *33:11 4.21401e-05
13 *33:12 5.66276e-05
14 *33:13 4.0101e-05

*RES
1 *33:13 *655:Y 0.193335
2 *33:3 *33:13 1.39999
3 *33:4 *33:3 1.11857
4 *33:5 *33:4 1.39999
5 *33:10 *744:A 0.773342
6 *33:6 *33:5 1.61571431
7 *33:11 *33:10 1.39999
8 *33:7 *33:6 1.39999
9 *33:11 *33:12 0.24856
10 *33:8 *742:A 1.39999
11 *33:8 *33:7 0.99429
12 *33:9 *33:12 0.24856
13 *33:9 *33:8 0.870009
*END

*D_NET *34 0.000748671

*CONN
*I *499:A I *C 65.105 8.845 *L 0.00155 *D DLY2X1
*I *502:Y O *C 66.845 14.065 *L 0 *D CLKBUFX2

*CAP
1 *499:A 3.68036e-05
2 *502:Y 1.28201e-05
3 *34:2 0.00024801
4 *34:3 0.00030934
5 *34:4 4.0103e-05
6 *34:5 0.000101603

*RES
1 *34:4 *502:Y 0.193347
2 *34:5 *34:4 1.39999
3 *34:3 *34:5 0.621413
4 *34:2 *34:3 2.2371428
5 *499:A *34:2 1.39999
*END

*D_NET *35 0.00107333

*CONN
*I *783:A I *C 13.775 19.285 *L 0.00155 *D DLY2X1
*I *791:Y O *C 5.655 17.255 *L 0 *D CLKBUFX2

*CAP
1 *783:A 3.67989e-05
2 *791:Y 3.67989e-05
3 *35:2 0.000163189
4 *35:3 0.0001641
5 *35:4 0.00015655
6 *35:5 0.00015655
7 *35:6 5.49704e-05
8 *35:7 5.4059e-05
9 *35:9 3.24494e-05
10 *35:10 0.000108932
11 *35:11 0.000108932

*RES
1 *35:11 *783:A 1.39999
2 *35:10 *35:11 0.870009
3 *35:6 *35:10 1.39999
4 *35:7 *35:6 0.372865
5 *35:7 *35:4 0.12428
6 *35:5 *35:4 1.61571431
7 *35:2 *35:5 0.12428
8 *35:3 *35:2 1.49143
9 *35:9 *35:3 1.39999
10 *35:9 *791:Y 1.39999
11 *35:8 *35:9 0.193064
*END

*D_NET *36 0.00510156

*CONN
*I *792:Y O *C 66.845 50.605 *L 0 *D CLKBUFX2
*I *817:A I *C 27.405 53.505 *L 0.00172 *D CLKBUFX2

*CAP
1 *792:Y 3.67939e-05
2 *817:A 3.67939e-05
3 *36:2 0.000352808
4 *36:3 0.000351929
5 *36:4 0.000140787
6 *36:5 0.000140787
7 *36:6 0.000619391328
8 *36:7 0.000619391328
9 *36:8 6.16698e-05
10 *36:9 6.18682e-05
11 *36:10 0.000211256
12 *36:11 0.000211256
13 *36:12 0.000421604
14 *36:13 0.000422284
15 *36:14 0.000150172
16 *36:15 0.000150172
17 *36:17 3.24558e-05
18 *36:12 *137:8 0.00022037
19 *36:13 *137:9 0.00022037
20 *36:10 *137:8 4.609e-05
21 *36:11 *137:9 4.60900016e-05
22 *36:2 *103:15 3.026e-05
23 *36:3 *103:12 3.026e-05
24 *36:4 *103:7 3.016e-05
25 *36:5 *103:8 3.016e-05
26 *36:6 *103:7 2.474e-05
27 *36:7 *103:8 2.474e-05
28 *36:8 *103:7 2.117e-05
29 *36:9 *103:8 2.117e-05
30 *36:2 *103:5 5.781e-05
31 *36:3 *103:6 5.781e-05
32 *36:10 *103:2 5.199e-05
33 *36:11 *103:3 5.199e-05
34 *36:12 *103:3 2.786e-05
35 *36:13 *103:4 2.786e-05
36 *36:14 *103:14 2.962e-05
37 *36:15 *103:13 2.96200005e-05

*RES
1 *36:15 *792:Y 1.4
2 *36:15 *36:14 1.11856
3 *36:2 *36:14 1.4
4 *36:3 *36:2 4.10142
5 *36:3 *36:4 0.124255
6 *36:5 *36:4 1.73997
7 *36:8 *36:5 0.124255
8 *36:9 *36:8 0.62141
9 *36:9 *36:6 0.124255
10 *36:7 *36:6 3.48001
11 *36:10 *36:7 0.124255
12 *36:11 *36:10 2.61003
13 *36:11 *36:12 0.124255
14 *36:13 *36:12 4.3499999
15 *36:17 *817:A 1.4
16 *36:17 *36:13 1.4
17 *36:16 *36:17 0.193087
*END

*D_NET *37 0.00172558

*CONN
*I *784:A I *C 16.675 32.915 *L 0.00155 *D DLY2X1
*I *793:Y O *C 17.255 19.285 *L 0 *D CLKBUFX2

*CAP
1 *784:A 1.28221e-05
2 *793:Y 3.67998e-05
3 *37:2 0.000445781016
4 *37:3 0.000445781016
5 *37:4 3.23784e-05
6 *37:5 3.23784e-05
7 *37:6 0.000306642
8 *37:7 0.000306642
9 *37:11 4.00989e-05
10 *37:12 3.24532e-05
11 *37:13 3.38e-05

*RES
1 *37:3 *793:Y 1.39999
2 *37:3 *37:2 2.98285723
3 *37:9 *37:13 0.193074
4 *37:13 *37:2 1.39999
5 *37:7 *37:13 1.39999
6 *37:7 *37:6 2.85856
7 *37:10 *37:4 0.182833
8 *37:4 *37:6 1.39999
9 *784:A *37:11 0.193347
10 *37:5 *37:4 0.124301
11 *37:12 *37:11 1.39999
12 *37:12 *37:5 1.39999
13 *37:8 *37:12 0.0299942
*END

*D_NET *38 0.00532072

*CONN
*I *794:Y O *C 55.245 53.795 *L 0 *D CLKBUFX2
*I *816:A I *C 22.765 48.285 *L 0.00172 *D CLKBUFX2

*CAP
1 *794:Y 3.67944e-05
2 *816:A 3.67944e-05
3 *38:2 0.000218348
4 *38:3 0.000218348
5 *38:4 3.55132e-05
6 *38:5 3.55132e-05
7 *38:6 0.000181662
8 *38:7 0.000181662
9 *38:8 0.000590623
10 *38:9 0.0005913
11 *38:10 0.000383328
12 *38:11 0.000382651
13 *38:10 *135:8 8.753e-05
14 *38:11 *135:9 8.753e-05
15 *38:10 *135:9 4.955e-05
16 *38:11 *135:10 4.95499952e-05
17 *38:10 *403:13 2.412e-05
18 *38:11 *403:14 2.412e-05
19 *38:8 *403:15 5.902e-05
20 *38:9 *403:16 5.902e-05
21 *38:8 *403:13 0.0002462
22 *38:9 *403:14 0.0002462
23 *38:8 *403:14 0.00018337
24 *38:9 *403:17 0.00018337
25 *38:6 *403:13 7.209e-05
26 *38:7 *403:14 7.20899915e-05
27 *38:10 *381:14 3.685e-05
28 *38:11 *381:12 3.685e-05
29 *38:10 *381:10 3.677e-05
30 *38:11 *381:3 3.677e-05
31 *38:10 *381:3 0.00020941
32 *38:11 *381:4 0.00020941
33 *38:10 *381:11 3.636e-05
34 *38:11 *381:9 3.63599844e-05
35 *38:8 *83:12 4.886e-05
36 *38:9 *83:6 4.886e-05
37 *38:8 *83:6 9.83e-05
38 *38:9 *83:7 9.83e-05
39 *38:8 *83:14 2.566e-05
40 *38:9 *83:11 2.56599988e-05

*RES
1 *38:2 *794:Y 1.39998
2 *38:3 *38:2 2.1129
3 *38:10 *38:3 1.39998
4 *38:11 *38:10 5.0957
5 *38:6 *38:11 0.124331
6 *38:7 *38:6 1.98857
7 *38:7 *38:8 0.124331
8 *38:9 *38:8 6.83571434
9 *38:4 *38:9 1.39998
10 *38:5 *38:4 0.248558
11 *816:A *38:5 1.39998
*END

*D_NET *39 0.00203141

*CONN
*I *656:Y O *C 5.945 22.475 *L 0 *D CLKBUFX2
*I *714:B I *C 17.545 27.695 *L 0.00168 *D NAND2BXL
*I *713:A I *C 15.225 27.695 *L 0.00162 *D NOR2XL
*I *712:A0 I *C 13.485 27.695 *L 0.00158 *D AOI21XL

*CAP
1 *656:Y 3.6798e-05
2 *714:B 3.6798e-05
3 *713:A 3.6798e-05
4 *712:A0 2.72595e-05
5 *39:4 4.92304e-05
6 *39:5 0.000133081
7 *39:6 5.45426e-05
8 *39:7 0.00038468
9 *39:8 0.00038468
10 *39:9 6.82017e-05
11 *39:10 6.82017e-05
12 *39:13 3.24485e-05
13 *39:14 5.62213e-05
14 *39:15 5.5018e-05
15 *39:16 5.36679e-05
16 *39:17 0.000122492
17 *39:18 7.66836e-05
18 *39:19 0.00016108
19 *39:20 3.24485e-05
20 *39:21 0.00016108

*RES
1 *39:20 *714:B 1.4
2 *39:12 *39:20 0.193074
3 *39:21 *39:20 1.4
4 *39:19 *39:21 0.994308
5 *39:18 *713:A 1.4
6 *39:18 *39:19 1.4
7 *712:A0 *39:6 0.386678
8 *39:17 *39:18 0.497128
9 *39:4 *39:6 1.4
10 *39:5 *39:17 0.497128
11 *39:5 *39:4 0.497128
12 *39:16 *39:5 0.372872
13 *39:16 *39:9 0.124308
14 *39:10 *39:9 0.994308
15 *39:15 *39:10 0.124308
16 *39:14 *39:15 0.372872
17 *39:7 *39:14 1.4
18 *39:8 *39:7 3.48000002
19 *39:13 *39:8 1.4
20 *39:13 *656:Y 1.4
21 *39:11 *39:13 0.193074
*END

*D_NET *40 0.00396238

*CONN
*I *795:Y O *C 52.345 53.795 *L 0 *D CLKBUFX2
*I *959:C I *C 17.255 53.795 *L 0.00164 *D NAND4XL
*I *967:A I *C 16.965 50.605 *L 0.00273 *D CLKINVX1

*CAP
1 *795:Y 3.67975e-05
2 *959:C 3.67975e-05
3 *967:A 3.67975e-05
4 *40:3 5.83635e-05
5 *40:4 0.000110726
6 *40:5 8.36592e-05
7 *40:6 8.20339e-05
8 *40:7 8.20339e-05
9 *40:8 6.00721e-05
10 *40:9 6.00721e-05
11 *40:13 3.91104e-05
12 *40:14 0.00136553
13 *40:15 0.00136465
14 *40:16 8.83266e-05
15 *40:17 3.24427e-05
16 *40:18 3.3797e-05
17 *40:19 3.3797e-05
18 *40:20 8.92017e-05
19 *40:3 *19:22 4.751e-05
20 *40:4 *19:21 4.751e-05
21 *40:4 *19:22 8.657e-05
22 *40:5 *19:21 8.65700041e-05

*RES
1 *40:13 *967:A 1.39994
2 *40:13 *40:5 0.124255
3 *40:3 *959:C 1.39994
4 *40:5 *40:4 0.87
5 *40:4 *40:3 0.497234
6 *40:7 *40:4 1.39994
7 *40:7 *40:6 0.372766
8 *40:9 *40:6 1.39994
9 *40:9 *40:8 0.372766
10 *40:14 *40:8 1.39994
11 *40:14 *40:15 13.9200001
12 *40:15 *40:16 0.124255
13 *40:16 *40:20 0.745745
14 *40:19 *40:20 1.39994
15 *40:12 *40:19 0.193074
16 *40:18 *40:19 1.39994
17 *40:11 *40:18 0.193074
18 *40:17 *40:18 1.39994
19 *40:17 *795:Y 1.39994
20 *40:10 *40:17 0.193074
*END

*D_NET *41 0.00452812

*CONN
*I *796:Y O *C 30.885 32.915 *L 0 *D CLKBUFX2
*I *963:B I *C 17.255 58.725 *L 0.00167 *D NAND2XL
*I *922:A0 I *C 17.545 55.825 *L 0.00157 *D OA21XL
*I *926:A I *C 15.515 58.725 *L 0.00157 *D NAND2XL

*CAP
1 *796:Y 3.68084e-05
2 *963:B 3.68084e-05
3 *922:A0 3.68084e-05
4 *926:A 3.68084e-05
5 *41:4 0.000159228
6 *41:5 0.000189376
7 *41:6 0.000127276
8 *41:7 9.71272e-05
9 *41:8 3.37649e-05
10 *41:9 3.37649e-05
11 *41:10 4.8887e-05
12 *41:11 4.8887e-05
13 *41:12 4.55784e-05
14 *41:13 4.55784e-05
15 *41:14 9.10826e-05
16 *41:15 8.15597e-05
17 *41:16 4.33515e-05
18 *41:17 0.000408509
19 *41:18 0.000408509
20 *41:21 0.00069497
21 *41:22 0.00069409
22 *41:23 3.245e-05
23 *41:24 0.000102864
24 *41:25 0.000173173
25 *41:26 0.000103235
26 *41:17 *130:9 0.00010739
27 *41:18 *130:10 0.00010739
28 *41:17 *130:31 3.751e-05
29 *41:18 *130:30 3.751e-05
30 *41:17 *130:7 4.98e-05
31 *41:18 *130:8 4.98000044e-05
32 *41:17 *139:184 2.372e-05
33 *41:18 *139:266 2.372e-05
34 *41:17 *139:266 2.215e-05
35 *41:18 *139:174 2.215e-05
36 *41:17 *139:174 6.574e-05
37 *41:18 *139:175 6.574e-05
38 *41:17 *139:175 1.678e-05
39 *41:18 *139:181 1.678e-05
40 *41:4 *139:196 3.572e-05
41 *41:5 *139:197 3.57199956e-05

*RES
1 *41:7 *796:Y 1.40005
2 *41:7 *41:6 0.745745
3 *41:6 *41:5 0.372872
4 *41:5 *41:4 1.36713
5 *41:10 *926:A 1.40005
6 *41:17 *41:4 1.40005
7 *41:12 *963:B 1.40005
8 *41:11 *41:10 0.248617
9 *41:18 *41:17 6.09
10 *41:13 *41:12 0.248617
11 *41:15 *41:11 1.40005
12 *41:21 *41:18 1.40005
13 *41:14 *41:13 1.40005
14 *41:15 *41:14 0.745745
15 *41:21 *41:22 6.96000004
16 *41:14 *41:16 0.248617
17 *41:22 *41:24 0.124255
18 *41:26 *41:16 1.40005
19 *41:24 *41:25 0.87
20 *41:25 *41:26 0.87
21 *41:20 *41:8 0.182878
22 *41:8 *41:25 1.40005
23 *41:9 *41:8 0.124255
24 *41:23 *922:A0 1.40005
25 *41:23 *41:9 1.40005
26 *41:19 *41:23 0.193074
*END

*D_NET *42 0.00181443

*CONN
*I *657:Y O *C 30.885 29.725 *L 0 *D CLKBUFX2
*I *711:B I *C 26.245 27.695 *L 0.00284 *D NAND2BX1
*I *709:A I *C 23.055 27.695 *L 0.00162 *D NOR2XL
*I *708:A0 I *C 20.445 27.695 *L 0.00158 *D AOI21XL

*CAP
1 *657:Y 3.68017e-05
2 *711:B 3.68017e-05
3 *709:A 3.68017e-05
4 *708:A0 3.68017e-05
5 *42:4 8.68622e-05
6 *42:5 8.68622e-05
7 *42:6 0.00031597
8 *42:7 7.60478e-05
9 *42:8 6.01999e-05
10 *42:9 0.000131619
11 *42:10 0.000104552
12 *42:11 0.00027237
13 *42:15 3.24528e-05
14 *42:16 3.24528e-05
15 *42:17 3.06592e-05
16 *42:18 3.06592e-05
17 *42:19 4.12615e-05
18 *42:8 *351:6 7.257e-05
19 *42:9 *351:7 7.257e-05
20 *42:9 *351:6 1.25e-05
21 *42:10 *351:7 1.25e-05
22 *42:9 *351:7 7.28e-05
23 *42:10 *351:13 7.28e-05
24 *42:9 *351:13 2.476e-05
25 *42:10 *351:12 2.47599957e-05

*RES
1 *42:4 *657:Y 1.4
2 *42:5 *42:4 0.621429
3 *42:17 *711:B 1.4
4 *42:14 *42:17 0.0643276
5 *42:19 *42:5 1.4
6 *42:17 *42:18 0.124286
7 *42:11 *42:19 0.124286
8 *42:6 *42:18 1.4
9 *42:6 *42:11 1.98857141
10 *42:7 *42:6 0.621429
11 *42:16 *709:A 1.4
12 *42:13 *42:16 0.193074
13 *42:8 *42:7 0.124286
14 *42:9 *42:16 1.4
15 *42:9 *42:8 0.745714
16 *42:10 *42:9 1.11857
17 *42:15 *708:A0 1.4
18 *42:15 *42:10 1.4
19 *42:12 *42:15 0.193074
*END

*D_NET *43 0.00129049

*CONN
*I *658:Y O *C 63.945 50.605 *L 0 *D CLKBUFX2
*I *695:D I *C 58.435 43.065 *L 0.00216 *D DFFHQX1

*CAP
1 *658:Y 3.67992e-05
2 *695:D 3.67992e-05
3 *43:2 0.00026787
4 *43:3 0.00026787
5 *43:5 3.24501e-05
6 *43:6 9.22411e-05
7 *43:7 9.22411e-05
8 *43:8 5.12523e-05
9 *43:9 5.00792e-05
10 *43:10 0.000180861
11 *43:11 0.00018203

*RES
1 *43:11 *658:Y 1.40001
2 *43:10 *43:11 1.74001
3 *43:7 *43:10 0.124276
4 *43:6 *43:7 1.11856
5 *43:6 *43:9 0.124276
6 *43:8 *43:9 0.372865
7 *43:2 *43:8 1.40001
8 *43:3 *43:2 2.3614285
9 *43:5 *695:D 1.40001
10 *43:5 *43:3 1.40001
11 *43:4 *43:5 0.193062
*END

*D_NET *44 0.00344805

*CONN
*I *797:Y O *C 55.535 55.825 *L 0 *D CLKBUFX2
*I *968:A0 I *C 39.875 55.825 *L 0.00164 *D AOI211XL
*I *927:A I *C 35.815 61.045 *L 0.00162 *D NOR2XL

*CAP
1 *797:Y 2.56605e-05
2 *968:A0 3.68e-05
3 *927:A 3.68e-05
4 *44:3 0.000128651
5 *44:4 0.000128651
6 *44:5 8.28013e-05
7 *44:6 8.28013e-05
8 *44:7 0.00018407
9 *44:8 0.00016722
10 *44:9 0.000100729
11 *44:10 0.000117778
12 *44:11 0.000104931
13 *44:12 0.000104931
14 *44:13 4.36898e-05
15 *44:14 0.000168998
16 *44:15 0.00015844
17 *44:16 7.9178e-05
18 *44:17 7.9178e-05
19 *44:18 0.00010071
20 *44:19 0.00010071
21 *44:20 0.0001323
22 *44:21 5.29389e-05
23 *44:22 0.000133181
24 *44:19 *98:17 1.25e-05
25 *44:18 *98:18 1.25e-05
26 *44:7 *98:17 6.981e-05
27 *44:8 *98:18 6.981e-05
28 *44:22 *98:19 9.506e-05
29 *44:20 *98:20 9.506e-05
30 *44:9 *98:19 1.886e-05
31 *44:10 *98:20 1.88600038e-05
32 *44:11 *490:2 3.341e-05
33 *44:12 *490:3 3.341e-05
34 *44:13 *490:2 3.677e-05
35 *44:14 *490:3 3.677e-05
36 *44:14 *490:2 0.00017172
37 *44:15 *490:3 0.00017171999
38 *44:19 *409:7 1.393e-05
39 *44:18 *409:8 1.393e-05
40 *44:5 *409:9 5.939e-05
41 *44:6 *409:10 5.939e-05
42 *44:17 *409:11 3.7e-05
43 *44:16 *409:12 3.69999976e-05

*RES
1 *44:21 *797:Y 0.386677
2 *44:4 *44:21 1.40001
3 *44:4 *44:3 0.869987
4 *44:22 *44:3 1.40001
5 *44:20 *44:22 0.994299
6 *44:9 *44:20 0.124284
7 *44:10 *44:9 1.11858
8 *44:10 *44:7 0.248568
9 *44:8 *44:7 1.86428571
10 *44:8 *44:19 0.124284
11 *44:18 *44:19 0.994299
12 *44:18 *44:11 0.124284
13 *44:6 *968:A0 1.40001
14 *44:12 *44:11 1.11858
15 *44:6 *44:5 0.994299
16 *44:13 *44:12 0.124284
17 *44:14 *44:5 1.40001
18 *44:14 *44:13 0.372851
19 *44:17 *927:A 1.40001
20 *44:15 *44:14 1.74
21 *44:16 *44:17 1.11858
22 *44:16 *44:15 1.40001
*END

*D_NET *45 0.000408693

*CONN
*I *503:Y O *C 5.945 6.815 *L 0 *D CLKBUFX2
*I *514:D I *C 8.265 6.235 *L 0.0016 *D DFFQX1

*CAP
1 *503:Y 3.68006e-05
2 *514:D 3.68006e-05
3 *45:3 3.24507e-05
4 *45:4 0.00011153
5 *45:5 3.97907e-05
6 *45:6 3.97907e-05
7 *45:7 0.00011153

*RES
1 *45:5 *514:D 1.39999998
2 *45:5 *45:6 0.248572
3 *45:7 *45:6 1.39999998
4 *45:4 *45:7 0.994287
5 *45:3 *45:4 1.39999998
6 *45:3 *503:Y 1.39999998
7 *45:2 *45:3 0.193051
*END

*D_NET *46 0.00044002

*CONN
*I *504:Y O *C 5.945 14.065 *L 0 *D CLKBUFX2
*I *513:D I *C 8.265 14.645 *L 0.0016 *D DFFQX1

*CAP
1 *504:Y 1.28192e-05
2 *513:D 3.67996e-05
3 *46:2 4.07104e-05
4 *46:3 4.07104e-05
5 *46:5 4.00994e-05
6 *46:6 0.00010427
7 *46:7 3.01696e-05
8 *46:8 3.01696e-05
9 *46:9 0.00010427

*RES
1 *46:5 *504:Y 0.193329
2 *46:3 *46:5 1.39999998
3 *46:3 *46:2 0.372858
4 *46:6 *46:2 1.39999998
5 *46:6 *46:9 1.11857
6 *46:8 *46:9 1.39999998
7 *46:7 *513:D 1.39999998
8 *46:7 *46:8 0.124286
9 *46:4 *46:7 0.0643219
*END

*D_NET *47 0.00143998

*CONN
*I *651:A I *C 28.275 22.475 *L 0.00155 *D DLY2X1
*I *659:Y O *C 23.635 27.695 *L 0 *D CLKBUFX2

*CAP
1 *651:A 3.68006e-05
2 *659:Y 3.68006e-05
3 *47:2 7.04089e-05
4 *47:3 7.04089e-05
5 *47:4 0.00037695
6 *47:5 0.00037695
7 *47:6 0.000235827
8 *47:7 0.000235827

*RES
1 *47:6 *651:A 1.4
2 *47:6 *47:7 1.36714
3 *47:4 *47:7 1.4
4 *47:5 *47:4 1.98857141
5 *47:2 *659:Y 1.4
6 *47:3 *47:5 1.4
7 *47:3 *47:2 0.87
*END

*D_NET *48 0.00259982

*CONN
*I *660:Y O *C 32.045 27.695 *L 0 *D CLKBUFX2
*I *694:D I *C 40.745 9.425 *L 0.0016 *D DFFQX1

*CAP
1 *660:Y 3.67941e-05
2 *694:D 3.67941e-05
3 *48:2 0.000328973
4 *48:3 0.000328973
5 *48:4 0.000118804
6 *48:5 0.000118804
7 *48:8 3.24457e-05
8 *48:9 0.00078289
9 *48:10 0.00078289
10 *48:11 3.24457e-05

*RES
1 *48:11 *694:D 1.40002
2 *48:7 *48:11 0.193074
3 *48:2 *48:11 1.40002
4 *48:3 *48:2 2.73433
5 *48:9 *48:3 1.40002
6 *48:9 *48:10 7.82999992
7 *48:4 *48:10 1.40002
8 *48:5 *48:4 0.994282
9 *48:8 *48:5 1.40002
10 *48:8 *660:Y 1.40002
11 *48:6 *48:8 0.193074
*END

*D_NET *49 0.00134038

*CONN
*I *661:Y O *C 52.925 12.035 *L 0 *D CLKBUFX2
*I *691:D I *C 43.645 14.645 *L 0.00164 *D DFFQXL

*CAP
1 *661:Y 3.67982e-05
2 *691:D 3.67982e-05
3 *49:2 0.000148729
4 *49:3 0.000148729
5 *49:4 0.0002277
6 *49:5 0.000227019
7 *49:6 4.36395e-05
8 *49:7 4.36395e-05
9 *49:8 0.000121892
10 *49:9 0.000121211
11 *49:10 9.21119e-05
12 *49:11 9.21119e-05

*RES
1 *49:3 *661:Y 1.40001
2 *49:3 *49:2 1.36715
3 *49:4 *49:2 1.40001
4 *49:5 *49:4 1.86428571
5 *49:5 *49:11 0.124284
6 *49:10 *49:11 0.994299
7 *49:9 *49:10 0.124284
8 *49:8 *49:9 1.11858
9 *49:7 *49:8 1.40001
10 *49:6 *49:7 0.248568
11 *691:D *49:6 1.40001
*END

*D_NET *50 0.00542288

*CONN
*I *775:A I *C 9.135 58.435 *L 0.00172 *D DLY3X1
*I *798:Y O *C 21.605 29.725 *L 0 *D CLKBUFX2

*CAP
1 *775:A 3.68009e-05
2 *798:Y 3.68009e-05
3 *50:3 0.000325731
4 *50:4 0.000325731
5 *50:5 0.000420521
6 *50:6 0.000436120234
7 *50:7 0.000226389
8 *50:8 4.44738e-05
9 *50:9 0.000225224
10 *50:10 0.000114249
11 *50:11 0.000114249
12 *50:12 9.80114e-05
13 *50:13 8.35839e-05
14 *50:14 0.000108226
15 *50:15 4.37884e-05
16 *50:16 0.000108226
17 *50:17 0.000298007
18 *50:18 3.24486e-05
19 *50:19 0.000298693
20 *50:19 *162:12 3.677e-05
21 *50:17 *162:13 3.677e-05
22 *50:19 *162:13 6.252e-05
23 *50:17 *162:14 6.252e-05
24 *50:15 *162:14 3.643e-05
25 *50:8 *162:15 3.643e-05
26 *50:16 *162:14 3.477e-05
27 *50:14 *162:15 3.47700032e-05
28 *50:19 *163:9 0.00011455
29 *50:17 *163:10 0.000114550001
30 *50:11 *89:4 0.00012356
31 *50:10 *89:5 0.00012356
32 *50:9 *89:6 8.441e-05
33 *50:7 *89:7 8.441e-05
34 *50:9 *89:2 0.00012209
35 *50:7 *89:3 0.00012209
36 *50:6 *89:4 5.372e-05
37 *50:5 *89:5 5.372e-05
38 *50:4 *89:4 0.00014578
39 *50:3 *89:5 0.000145779991
40 *50:9 *177:6 0.0002082
41 *50:7 *177:7 0.000208200001

*RES
1 *50:13 *775:A 1.39998
2 *50:12 *50:13 0.870027
3 *50:6 *50:12 0.248579
4 *50:5 *50:6 2.61002
5 *50:5 *50:11 0.12429
6 *50:10 *50:11 1.24283
7 *50:4 *50:10 0.12429
8 *50:3 *50:4 4.10142851
9 *50:3 *50:9 0.12429
10 *50:7 *50:9 3.47998
11 *50:8 *50:7 1.39998
12 *50:8 *50:15 0.372869
13 *50:14 *50:15 0.12429
14 *50:14 *50:16 1.24283
15 *50:16 *50:17 0.12429
16 *50:17 *50:19 3.85285
17 *50:18 *50:19 1.39998
18 *50:18 *798:Y 1.39998
19 *50:2 *50:18 0.193068
*END

*D_NET *51 0.00171307

*CONN
*I *771:A I *C 48.285 56.115 *L 0.00172 *D CLKBUFX2
*I *799:Y O *C 41.035 53.795 *L 0 *D CLKBUFX2

*CAP
1 *771:A 3.68036e-05
2 *799:Y 3.68036e-05
3 *51:2 0.00060419
4 *51:3 0.00060419
5 *51:5 3.24521e-05
6 *51:6 0.000199322
7 *51:7 0.000199322

*RES
1 *51:7 *771:A 1.40001
2 *51:6 *51:7 0.994308
3 *51:2 *51:6 1.40001
4 *51:3 *51:2 3.10714293
5 *51:5 *51:3 1.40001
6 *51:5 *799:Y 1.40001
7 *51:4 *51:5 0.193059
*END

*D_NET *52 0.0013913

*CONN
*I *773:A I *C 35.815 53.795 *L 0.00155 *D DLY2X1
*I *800:Y O *C 39.875 45.385 *L 0 *D CLKBUFX2

*CAP
1 *773:A 3.67993e-05
2 *800:Y 3.67993e-05
3 *52:2 4.99696e-05
4 *52:3 5.11406e-05
5 *52:4 0.00012592
6 *52:5 0.00012592
7 *52:6 5.92396e-05
8 *52:7 5.85617e-05
9 *52:8 5.88399e-05
10 *52:9 5.95203e-05
11 *52:10 0.000140798
12 *52:11 0.000140798
13 *52:12 0.00016576
14 *52:13 0.00016576
15 *52:14 5.71503e-05
16 *52:15 5.83189e-05

*RES
1 *52:3 *800:Y 1.39999
2 *52:3 *52:2 0.372857
3 *52:12 *52:2 0.124278
4 *52:12 *52:13 1.49142861
5 *52:13 *52:14 0.124278
6 *52:14 *52:15 0.372857
7 *52:6 *52:15 1.39999
8 *52:7 *52:6 0.372857
9 *52:7 *52:4 0.124278
10 *52:5 *52:4 0.994293
11 *52:8 *52:5 0.124278
12 *52:11 *773:A 1.39999
13 *52:9 *52:8 0.372857
14 *52:10 *52:11 1.36715
15 *52:10 *52:9 1.39999
*END

*D_NET *53 0.00216723

*CONN
*I *779:A I *C 28.275 40.745 *L 0.00172 *D DLY3X1
*I *801:Y O *C 23.345 29.725 *L 0 *D CLKBUFX2

*CAP
1 *779:A 3.68025e-05
2 *801:Y 1.28168e-05
3 *53:2 0.000534659492
4 *53:3 0.00052017
5 *53:4 0.000276847
6 *53:5 4.00984e-05
7 *53:6 5.47591e-05
8 *53:7 0.000207109
9 *53:8 0.000276847
10 *53:9 0.000207109

*RES
1 *53:9 *779:A 1.39998
2 *53:7 *53:9 2.11286
3 *53:8 *53:7 1.39998
4 *53:4 *53:8 2.4857
5 *53:5 *801:Y 0.193353
6 *53:3 *53:4 1.39998
7 *53:6 *53:5 1.39998
8 *53:2 *53:3 2.6099999
9 *53:2 *53:6 0.24859
*END

*D_NET *54 0.00122293

*CONN
*I *769:A I *C 46.835 61.335 *L 0.00172 *D CLKBUFX2
*I *802:Y O *C 42.195 55.825 *L 0 *D CLKBUFX2

*CAP
1 *769:A 3.67991e-05
2 *802:Y 3.67991e-05
3 *54:2 0.000259119
4 *54:3 0.000259119
5 *54:4 0.000299320586
6 *54:5 0.000299320586
7 *54:7 3.24509e-05

*RES
1 *54:3 *802:Y 1.40001
2 *54:3 *54:2 2.3614285
3 *54:5 *54:2 1.40001
4 *54:5 *54:4 1.98856
5 *54:7 *769:A 1.40001
6 *54:7 *54:4 1.40001
7 *54:6 *54:7 0.193062
*END

*D_NET *55 0.00298886

*CONN
*I *777:A I *C 25.085 40.455 *L 0.00175 *D DLY4X1
*I *803:Y O *C 5.655 32.915 *L 0 *D CLKBUFX2

*CAP
1 *777:A 3.67989e-05
2 *803:Y 3.84766e-05
3 *55:2 8.24892e-05
4 *55:3 8.13149e-05
5 *55:4 8.42162e-05
6 *55:5 8.42162e-05
7 *55:6 0.000166311
8 *55:7 0.000166311
9 *55:8 0.000204037
10 *55:9 0.000203356
11 *55:10 5.87856e-05
12 *55:11 0.00064672
13 *55:12 0.000192166
14 *55:13 0.000646039
15 *55:14 0.000192166
16 *55:15 5.33086e-05
17 *55:16 5.21442e-05

*RES
1 *55:2 *777:A 1.40001
2 *55:3 *55:2 0.372851
3 *55:4 *55:3 0.124255
4 *55:5 *55:4 0.994299
5 *55:5 *55:16 0.124255
6 *55:15 *55:16 0.372851
7 *55:8 *55:15 1.40001
8 *55:9 *55:8 1.49141
9 *55:14 *55:9 0.124255
10 *55:12 *55:14 1.61575
11 *55:12 *55:13 0.124255
12 *55:11 *55:13 5.59285736
13 *55:6 *55:11 1.40001
14 *55:7 *55:6 1.49141
15 *55:10 *55:7 1.40001
16 *55:10 *803:Y 0.579972
*END

*D_NET *56 0.00208508

*CONN
*I *804:Y O *C 34.655 45.385 *L 0 *D CLKBUFX2
*I *887:AN I *C 26.245 42.775 *L 0.00173 *D NOR2BX2

*CAP
1 *804:Y 3.67962e-05
2 *887:AN 3.67962e-05
3 *56:2 0.000176383
4 *56:3 0.000176383
5 *56:4 0.00075334
6 *56:5 7.6018e-05
7 *56:6 0.00075334
8 *56:7 7.6018e-05

*RES
1 *56:7 *804:Y 1.4
2 *56:5 *56:7 0.248587
3 *56:6 *56:5 1.4
4 *56:4 *56:6 3.60428572
5 *56:2 *56:4 1.4
6 *56:3 *56:2 0.869998
7 *887:AN *56:3 1.4
*END

*D_NET *57 0.00240332

*CONN
*I *805:Y O *C 5.945 34.945 *L 0 *D CLKBUFX2
*I *888:AN I *C 17.835 45.675 *L 0.00174 *D NOR2BXL

*CAP
1 *805:Y 3.67971e-05
2 *888:AN 3.67971e-05
3 *57:2 0.00033595
4 *57:3 0.00033595
5 *57:4 0.00052965
6 *57:5 0.00052965
7 *57:6 0.000299258
8 *57:7 0.000299258

*RES
1 *57:7 *888:AN 1.39997
2 *57:6 *57:7 2.85856
3 *57:4 *57:6 1.39997
4 *57:5 *57:4 5.09571409
5 *57:2 *57:5 1.39997
6 *57:3 *57:2 1.73999
7 *805:Y *57:3 1.39997
*END

*D_NET *58 0.00162142

*CONN
*I *806:Y O *C 12.325 61.045 *L 0 *D CLKBUFX2
*I *889:AN I *C 10.005 50.895 *L 0.00174 *D NOR2BX1

*CAP
1 *806:Y 3.68009e-05
2 *889:AN 3.68009e-05
3 *58:2 0.000188161
4 *58:3 0.000188161
5 *58:4 8.06518e-05
6 *58:5 7.94498e-05
7 *58:6 0.000230979
8 *58:7 0.000231010313
9 *58:8 0.00015793
10 *58:9 0.00015793
11 *58:10 9.72193e-05
12 *58:11 9.72193e-05
13 *58:12 3.90992e-05

*RES
1 *58:8 *806:Y 1.39999
2 *58:9 *58:8 1.24285
3 *58:10 *58:9 1.39999
4 *58:11 *58:10 0.869992
5 *58:4 *58:11 1.39999
6 *58:5 *58:4 0.372857
7 *58:2 *58:5 0.124278
8 *58:3 *58:2 1.49142861
9 *58:3 *58:6 0.124278
10 *58:7 *58:6 1.24285
11 *58:12 *58:7 0.124278
12 *889:AN *58:12 1.39999
*END

*D_NET *59 0.000767857

*CONN
*I *652:A I *C 39.005 19.285 *L 0.00155 *D DLY2X1
*I *662:Y O *C 37.265 24.505 *L 0 *D CLKBUFX2

*CAP
1 *652:A 3.68012e-05
2 *662:Y 3.68012e-05
3 *59:2 0.00018953
4 *59:3 0.00018953
5 *59:4 6.76188e-05
6 *59:5 6.76188e-05
7 *59:6 8.99801e-05
8 *59:7 8.99801e-05

*RES
1 *59:3 *652:A 1.4
2 *59:3 *59:2 1.74000001
3 *59:7 *59:2 1.4
4 *59:6 *59:7 0.745718
5 *59:4 *662:Y 1.4
6 *59:5 *59:6 1.4
7 *59:5 *59:4 0.497154
*END

*D_NET *60 0.000551802

*CONN
*I *807:Y O *C 22.475 45.385 *L 0 *D CLKBUFX2
*I *886:AN I *C 24.505 48.285 *L 0.00174 *D NOR2BX1

*CAP
1 *807:Y 3.68008e-05
2 *886:AN 3.68008e-05
3 *60:2 8.35709e-05
4 *60:3 8.35709e-05
5 *60:4 3.96701e-05
6 *60:5 3.96701e-05
7 *60:6 0.00011586
8 *60:7 0.00011586

*RES
1 *60:4 *886:AN 1.39999998
2 *60:5 *60:4 0.248572
3 *60:6 *60:5 1.39999998
4 *60:7 *60:6 0.870001
5 *60:2 *60:7 1.39999998
6 *60:3 *60:2 0.994287
7 *807:Y *60:3 1.39999998
*END

*D_NET *61 0.00119512

*CONN
*I *808:Y O *C 35.235 48.575 *L 0 *D CLKBUFX2
*I *885:AN I *C 41.905 45.675 *L 0.00174 *D NOR2BXL

*CAP
1 *808:Y 3.68016e-05
2 *885:AN 3.68016e-05
3 *61:2 0.00036698
4 *61:3 0.00036698
5 *61:4 0.000118048
6 *61:5 0.000118048
7 *61:6 7.57311e-05
8 *61:7 7.57311e-05

*RES
1 *61:6 *885:AN 1.40002
2 *61:6 *61:7 0.497162
3 *61:2 *61:7 1.40002
4 *61:3 *61:2 2.85857153
5 *61:5 *808:Y 1.40002
6 *61:4 *61:3 1.40002
7 *61:4 *61:5 0.745699
*END

*D_NET *62 0.000883363

*CONN
*I *658:A I *C 64.525 50.895 *L 0.00172 *D CLKBUFX2
*I *663:Y O *C 58.725 48.575 *L 0 *D CLKBUFX2

*CAP
1 *658:A 3.68028e-05
2 *663:Y 3.68028e-05
3 *62:2 7.49324e-05
4 *62:3 7.49324e-05
5 *62:4 0.0002787
6 *62:5 0.0002787
7 *62:6 5.12492e-05
8 *62:7 5.12492e-05

*RES
1 *62:2 *658:A 1.4
2 *62:3 *62:2 0.621429
3 *62:4 *62:3 1.4
4 *62:5 *62:4 2.4857142
5 *62:7 *62:5 1.4
6 *62:6 *62:7 0.372842
7 *663:Y *62:6 1.4
*END

*D_NET *63 0.00120478

*CONN
*I *664:Y O *C 58.725 22.475 *L 0 *D CLKBUFX2
*I *697:D I *C 58.435 30.305 *L 0.0016 *D DFFQX1

*CAP
1 *664:Y 1.31363e-05
2 *697:D 3.67987e-05
3 *63:2 0.00055721
4 *63:3 0.00055721
5 *63:4 4.04208e-05

*RES
1 *63:2 *697:D 1.40002
2 *63:3 *63:2 3.35571432
3 *63:4 *63:3 1.40002
4 *63:4 *664:Y 0.193347
*END

*D_NET *64 0.00119985

*CONN
*I *809:Y O *C 23.345 53.795 *L 0 *D CLKBUFX2
*I *894:AN I *C 26.825 61.335 *L 0.00174 *D NOR2BX1

*CAP
1 *809:Y 3.6799e-05
2 *894:AN 3.6799e-05
3 *64:2 0.000192057
4 *64:3 0.000192057
5 *64:5 3.24527e-05
6 *64:6 0.000234547
7 *64:7 0.00024898
8 *64:8 0.00012029
9 *64:9 0.000105861

*RES
1 *64:9 *894:AN 1.40001
2 *64:8 *64:9 0.870006
3 *64:7 *64:8 0.248588
4 *64:6 *64:7 2.3614285
5 *64:2 *64:6 1.40001
6 *64:3 *64:2 1.24287
7 *64:5 *64:3 1.40001
8 *64:5 *809:Y 1.40001
9 *64:4 *64:5 0.193062
*END

*D_NET *65 0.00147643

*CONN
*I *665:Y O *C 36.685 27.695 *L 0 *D CLKBUFX2
*I *689:D I *C 47.415 27.115 *L 0.0016 *D DFFQX1

*CAP
1 *665:Y 2.5657e-05
2 *689:D 3.68015e-05
3 *65:3 3.4982e-05
4 *65:4 5.95193e-05
5 *65:5 4.59604e-05
6 *65:6 3.4982e-05
7 *65:7 0.000125696
8 *65:8 0.00057328
9 *65:9 3.24539e-05
10 *65:10 0.000507095

*RES
1 *65:5 *665:Y 0.386684
2 *65:6 *65:5 1.4
3 *65:3 *65:6 0.248587
4 *65:4 *65:3 1.4
5 *65:4 *65:7 0.37288
6 *65:7 *65:8 0.869998
7 *65:8 *65:10 3.60428572
8 *65:9 *689:D 1.4
9 *65:9 *65:10 1.4
10 *65:2 *65:9 0.19304
*END

*D_NET *66 0.0004936

*CONN
*I *666:Y O *C 61.625 27.695 *L 0 *D CLKBUFX2
*I *698:D I *C 61.625 24.795 *L 0.00216 *D DFFHQX1

*CAP
1 *666:Y 3.67993e-05
2 *698:D 3.67993e-05
3 *66:2 0.00021
4 *66:3 0.00021

*RES
1 *66:3 *666:Y 1.39999998
2 *66:2 *66:3 1.24286
3 *698:D *66:2 1.39999998
*END

*D_NET *67 0.00061328

*CONN
*I *667:Y O *C 19.865 19.285 *L 0 *D CLKBUFX2
*I *684:D I *C 17.835 21.895 *L 0.00164 *D DFFQXL

*CAP
1 *667:Y 3.68011e-05
2 *684:D 3.68011e-05
3 *67:2 0.0001368
4 *67:3 4.42102e-05
5 *67:4 0.00013304
6 *67:5 0.00022563

*RES
1 *67:4 *667:Y 1.39999998
2 *67:3 *684:D 1.39999998
3 *67:4 *67:5 0.870001
4 *67:2 *67:3 0.248572
5 *67:2 *67:5 0.870001
*END

*D_NET *68 0.00054352

*CONN
*I *668:Y O *C 44.805 12.035 *L 0 *D CLKBUFX2
*I *692:D I *C 43.065 9.135 *L 0.00216 *D DFFHQX1

*CAP
1 *668:Y 1.28203e-05
2 *692:D 3.68007e-05
3 *68:2 6.64594e-05
4 *68:3 9.66105e-05
5 *68:4 0.000110129883
6 *68:5 9.44695e-05
7 *68:6 5.031e-05
8 *68:7 4.00995e-05
9 *68:8 3.58193e-05

*RES
1 *68:7 *668:Y 0.193329
2 *68:8 *68:7 1.39999998
3 *68:6 *68:8 0.248572
4 *68:5 *68:6 0.248572
5 *68:4 *68:5 0.497144
6 *68:3 *68:4 0.372858
7 *68:2 *68:3 0.497144
8 *692:D *68:2 1.39999998
*END

*D_NET *69 0.00146384

*CONN
*I *810:Y O *C 66.265 55.825 *L 0 *D CLKBUFX2
*I *824:A I *C 65.685 45.675 *L 0.00178 *D DLY1X1

*CAP
1 *810:Y 1.31394e-05
2 *824:A 3.68048e-05
3 *69:2 0.000475740195
4 *69:3 0.000474571
5 *69:4 0.000212168
6 *69:5 0.000211
7 *69:6 4.042e-05

*RES
1 *69:6 *810:Y 0.193351
2 *69:2 *69:6 1.40001
3 *69:3 *69:2 2.3614285
4 *69:5 *69:3 0.124276
5 *69:4 *69:5 1.98856
6 *824:A *69:4 1.40001
*END

*D_NET *70 0.00160874

*CONN
*I *811:Y O *C 60.175 59.015 *L 0 *D CLKBUFX2
*I *830:A I *C 65.395 63.945 *L 0.00178 *D DLY1X1

*CAP
1 *811:Y 3.67984e-05
2 *830:A 3.67984e-05
3 *70:2 0.000438230938
4 *70:3 0.000438230938
5 *70:4 0.000251397
6 *70:5 7.79367e-05
7 *70:6 0.000251397
8 *70:7 7.79367e-05

*RES
1 *70:5 *830:A 1.4
2 *70:5 *70:7 0.745692
3 *70:6 *70:7 1.4
4 *70:4 *70:6 3.48000002
5 *70:2 *70:4 1.4
6 *70:3 *70:2 2.85856
7 *811:Y *70:3 1.4
*END

*D_NET *71 0.00128514

*CONN
*I *505:Y O *C 14.355 6.815 *L 0 *D CLKBUFX2
*I *574:A I *C 15.215 11.8075 *L 0.00163 *D INVXL
*I *524:A I *C 13.775 9.135 *L 0.0017 *D MXI2XL
*I *541:A0N I *C 15.225 9.135 *L 0.00167 *D OAI2BB1XL
*I *552:B I *C 16.095 6.525 *L 0.00171 *D NOR2XL

*CAP
1 *505:Y 2.56597e-05
2 *574:A 3.67997e-05
3 *524:A 3.67997e-05
4 *541:A0N 3.67997e-05
5 *552:B 3.67997e-05
6 *71:5 0.000117193
7 *71:6 0.000145401
8 *71:7 4.5962e-05
9 *71:8 6.96892e-05
10 *71:9 0.00015641
11 *71:10 4.22211e-05
12 *71:11 0.000171279
13 *71:12 0.00024639
14 *71:13 7.39001e-05
15 *71:14 4.38378e-05

*RES
1 *71:14 *552:B 1.39999998
2 *71:13 *71:14 0.248572
3 *71:5 *574:A 1.39999998
4 *71:11 *71:13 0.372858
5 *71:6 *541:A0N 1.39999998
6 *71:6 *71:5 1.11857
7 *71:11 *71:12 0.994287
8 *71:12 *71:6 0.372858
9 *71:10 *524:A 1.39999998
10 *71:9 *71:12 0.621429
11 *71:9 *71:10 0.372858
12 *71:8 *71:9 0.621429
13 *71:7 *71:8 1.39999998
14 *71:7 *505:Y 0.386658
*END

*D_NET *72 0.00210726

*CONN
*I *496:Y O *C 58.145 34.945 *L 0 *D CLKBUFX2
*I *756:A I *C 62.495 48.285 *L 0.00163 *D XNOR2X2
*I *761:A I *C 57.855 45.675 *L 0.00157 *D NAND2XL

*CAP
1 *496:Y 3.68006e-05
2 *756:A 3.68006e-05
3 *761:A 1.28206e-05
4 *72:3 0.000198704
5 *72:4 0.000198704
6 *72:5 8.84802e-05
7 *72:6 8.84802e-05
8 *72:7 6.10992e-05
9 *72:8 6.10992e-05
10 *72:9 0.00034238
11 *72:10 0.00034238
12 *72:13 3.24486e-05
13 *72:14 3.38018e-05
14 *72:15 4.01024e-05
15 *72:9 *382:20 0.00017375
16 *72:10 *382:21 0.000173750001
17 *72:9 *385:12 9.283e-05
18 *72:10 *385:13 9.28300004e-05

*RES
1 *761:A *72:15 0.193362
2 *72:5 *756:A 1.40003
3 *72:8 *72:15 1.40003
4 *72:6 *72:5 0.745684
5 *72:8 *72:7 0.372842
6 *72:3 *72:6 1.40003
7 *72:4 *72:7 1.40003
8 *72:4 *72:3 1.86429
9 *72:9 *72:4 1.40003
10 *72:10 *72:9 4.97142839
11 *72:14 *72:10 1.40003
12 *72:12 *72:14 0.193059
13 *72:13 *72:14 1.40003
14 *72:13 *496:Y 1.40003
15 *72:11 *72:13 0.193059
*END

*D_NET *73 0.00182539

*CONN
*I *506:Y O *C 18.705 14.065 *L 0 *D CLKBUFX2
*I *553:A I *C 15.805 14.065 *L 0.00162 *D NOR2XL
*I *552:A I *C 15.805 6.815 *L 0.00162 *D NOR2XL
*I *541:A1N I *C 15.805 8.845 *L 0.00173 *D OAI2BB1XL
*I *523:A I *C 12.035 11.745 *L 0.0017 *D MXI2XL

*CAP
1 *506:Y 3.68015e-05
2 *553:A 3.68015e-05
3 *552:A 3.68015e-05
4 *541:A1N 3.68015e-05
5 *523:A 3.68015e-05
6 *73:5 0.000104818
7 *73:6 0.000104818
8 *73:7 0.00015989
9 *73:8 0.00012606
10 *73:9 6.50903e-05
11 *73:10 5.4048e-05
12 *73:11 6.06581e-05
13 *73:12 0.00029549
14 *73:13 0.00018119
15 *73:14 0.000109498
16 *73:15 0.000109498
17 *73:16 0.000148108
18 *73:17 6.10999e-05
19 *73:18 6.10999e-05

*RES
1 *73:8 *552:A 1.39999
2 *73:7 *541:A1N 1.39999
3 *73:8 *73:7 0.870009
4 *73:7 *73:9 0.870009
5 *73:6 *73:9 0.12428
6 *73:18 *506:Y 1.39999
7 *73:6 *73:5 0.99429
8 *73:10 *553:A 1.39999
9 *73:17 *73:18 0.372865
10 *73:5 *73:11 0.12428
11 *73:11 *73:10 0.372865
12 *73:16 *73:17 1.39999
13 *73:12 *73:11 1.39999
14 *73:12 *73:16 1.24285
15 *73:13 *73:12 1.61571431
16 *73:14 *73:13 1.39999
17 *73:15 *73:14 0.621425
18 *523:A *73:15 1.39999
*END

*D_NET *74 0.00135883

*CONN
*I *812:Y O *C 15.805 61.045 *L 0 *D CLKBUFX2
*I *822:A I *C 5.945 61.335 *L 0.00178 *D DLY1X1

*CAP
1 *812:Y 3.68005e-05
2 *822:A 3.68005e-05
3 *74:2 2.92381e-05
4 *74:3 2.92381e-05
5 *74:4 0.000150203
6 *74:5 0.000150203
7 *74:6 0.0003833
8 *74:7 0.000382417
9 *74:10 6.45296e-05
10 *74:11 6.36523e-05
11 *74:12 3.24491e-05

*RES
1 *74:9 *74:12 0.193074
2 *74:12 *812:Y 1.4
3 *74:6 *74:12 1.4
4 *74:7 *74:6 1.98857141
5 *74:7 *74:4 0.124286
6 *74:5 *74:4 1.74
7 *74:11 *74:5 0.124286
8 *74:10 *74:11 0.497143
9 *74:3 *74:10 1.4
10 *74:2 *822:A 1.4
11 *74:3 *74:2 0.124286
12 *74:8 *74:2 0.182848
*END

*D_NET *75 0.00171434

*CONN
*I *813:Y O *C 30.305 45.385 *L 0 *D CLKBUFX2
*I *944:A I *C 25.375 50.315 *L 0.00152 *D NAND4XL
*I *917:A I *C 29.725 43.065 *L 0.00157 *D NAND2XL
*I *916:A0 I *C 28.275 43.065 *L 0.00164 *D OAI21XL

*CAP
1 *813:Y 3.67977e-05
2 *944:A 3.67977e-05
3 *917:A 5.29405e-05
4 *916:A0 3.89583e-05
5 *75:4 3.06618e-05
6 *75:5 7.10483e-05
7 *75:6 8.73412e-05
8 *75:7 0.000298088984
9 *75:8 0.000298088984
10 *75:10 3.90993e-05
11 *75:11 3.90993e-05
12 *75:12 0.000218821
13 *75:13 5.53604e-05
14 *75:14 4.20604e-05
15 *75:15 6.79325e-05
16 *75:16 8.24197e-05
17 *75:17 0.000218821

*RES
1 *75:10 *944:A 1.4
2 *916:A0 *75:13 0.58001
3 *75:10 *75:7 0.124286
4 *75:13 *75:14 0.193347
5 *75:8 *75:7 1.98857141
6 *75:14 *917:A 0.386663
7 *75:8 *75:11 0.124286
8 *75:15 *917:A 1.4
9 *75:12 *75:11 1.4
10 *75:15 *75:16 0.497143
11 *75:12 *75:17 1.86429
12 *75:16 *75:6 0.248571
13 *75:4 *75:17 1.4
14 *75:6 *75:5 0.497143
15 *75:5 *75:4 0.124286
16 *75:5 *813:Y 1.4
17 *75:9 *75:5 0.0643276
*END

*D_NET *76 0.00218035

*CONN
*I *655:A I *C 52.635 35.235 *L 0.00172 *D CLKBUFX2
*I *669:Y O *C 41.035 27.695 *L 0 *D CLKBUFX2

*CAP
1 *655:A 3.67982e-05
2 *669:Y 2.56598e-05
3 *76:2 0.000103619
4 *76:3 0.000103619
5 *76:4 6.19271e-05
6 *76:5 6.19271e-05
7 *76:6 0.000229471
8 *76:7 0.000229471
9 *76:8 0.000316271484
10 *76:9 0.000315591
11 *76:10 7.03196e-05
12 *76:11 7.1e-05
13 *76:13 4.59628e-05
14 *76:14 0.000238129
15 *76:15 0.000238129
16 *76:16 3.245e-05

*RES
1 *76:13 *669:Y 0.386678
2 *76:3 *76:13 1.40002
3 *76:3 *76:2 1.11856
4 *76:11 *76:2 1.40002
5 *76:11 *76:10 0.372869
6 *76:10 *76:7 0.12429
7 *76:7 *76:6 1.8643
8 *76:9 *76:6 0.12429
9 *76:9 *76:8 2.73428583
10 *76:14 *76:8 1.40002
11 *76:14 *76:15 2.11284
12 *76:5 *76:15 1.40002
13 *76:5 *76:4 0.248579
14 *76:16 *655:A 1.40002
15 *76:16 *76:4 1.40002
16 *76:12 *76:16 0.193047
*END

*D_NET *77 0.00113049

*CONN
*I *575:Y O *C 40.455 12.035 *L 0 *D CLKBUFX2
*I *639:A I *C 32.045 11.745 *L 0.0017 *D MXI2XL

*CAP
1 *575:Y 3.67989e-05
2 *639:A 3.67989e-05
3 *77:2 0.000177352
4 *77:3 0.00017803
5 *77:6 3.06499e-05
6 *77:7 3.06499e-05
7 *77:8 0.00018928
8 *77:9 0.000114258
9 *77:10 0.00018928
10 *77:11 3.24492e-05
11 *77:12 0.00011494

*RES
1 *77:5 *77:11 0.193064
2 *77:11 *575:Y 1.39999
3 *77:12 *77:11 1.39999
4 *77:9 *77:12 0.99429
5 *77:9 *77:10 0.12428
6 *77:8 *77:10 1.61571431
7 *77:2 *77:8 0.12428
8 *77:3 *77:2 0.99429
9 *77:7 *77:3 1.39999
10 *77:6 *639:A 1.39999
11 *77:6 *77:7 0.12428
12 *77:4 *77:6 0.0643219
*END

*D_NET *78 0.0058303

*CONN
*I *788:A I *C 67.425 19.575 *L 0.00172 *D CLKBUFX2
*I *814:Y O *C 40.165 40.165 *L 0 *D CLKBUFX2

*CAP
1 *788:A 3.68043e-05
2 *814:Y 3.68043e-05
3 *78:2 0.000129852
4 *78:3 0.000114223
5 *78:4 0.00016069
6 *78:5 0.00017629
7 *78:6 0.00049244
8 *78:7 0.000491275
9 *78:8 0.000388632
10 *78:9 0.000387775
11 *78:10 0.000188966
12 *78:11 0.000189139
13 *78:12 0.000487203
14 *78:13 0.000487879
15 *78:14 6.69661e-05
16 *78:15 6.69661e-05
17 *78:16 0.00010368
18 *78:17 0.000102478
19 *78:8 *174:7 0.00016077
20 *78:9 *174:8 0.00016077
21 *78:12 *174:9 7.62e-06
22 *78:13 *174:10 7.62e-06
23 *78:10 *174:7 1.467e-05
24 *78:11 *174:8 1.467e-05
25 *78:10 *174:8 5.37e-06
26 *78:11 *174:11 5.37e-06
27 *78:10 *174:11 1.33e-05
28 *78:11 *174:12 1.3300007e-05
29 *78:12 *113:4 1.85e-05
30 *78:13 *113:5 1.85e-05
31 *78:12 *113:4 0.00010349
32 *78:13 *113:5 0.000103490001
33 *78:10 0.00027686
34 *78:11 0.00027686
35 *78:12 3.373e-05
36 *78:13 3.37300089e-05
37 *78:6 *93:25 0.00022681
38 *78:7 *93:23 0.000226809993

*RES
1 *78:16 *788:A 1.39996
2 *78:16 *78:17 0.869996
3 *78:17 *78:3 0.124312
4 *78:3 *78:2 0.869996
5 *78:2 *78:5 0.24853
6 *78:5 *78:4 1.36715
7 *78:7 *78:4 0.124312
8 *78:7 *78:6 6.21428585
9 *78:8 *78:6 1.39996
10 *78:9 *78:8 4.47429
11 *78:10 *78:9 0.124312
12 *78:11 *78:10 2.85861
13 *78:11 *78:12 0.124312
14 *78:13 *78:12 4.59861
15 *78:15 *78:13 1.39996
16 *78:14 *78:15 0.497154
17 *814:Y *78:14 1.39996
*END

*D_NET *79 0.004429

*CONN
*I *782:A I *C 54.665 48.285 *L 0.00184 *D DLY1X4
*I *815:Y O *C 21.315 50.605 *L 0 *D CLKBUFX2

*CAP
1 *782:A 3.68029e-05
2 *815:Y 3.68029e-05
3 *79:2 6.12262e-05
4 *79:3 6.12262e-05
5 *79:4 0.000217816
6 *79:5 0.000217135
7 *79:6 0.00012298
8 *79:7 0.00012298
9 *79:8 7.25701e-05
10 *79:9 7.25701e-05
11 *79:10 0.000627739
12 *79:11 0.00062842
13 *79:12 0.000142753
14 *79:13 0.000121992
15 *79:14 0.000142753
16 *79:15 0.000121992
17 *79:4 *139:234 3.045e-05
18 *79:5 *139:235 3.045e-05
19 *79:4 *139:235 1.073e-05
20 *79:5 *139:236 1.073e-05
21 *79:14 *139:237 3.382e-05
22 *79:12 *139:238 3.382e-05
23 *79:10 *139:237 0.0001466
24 *79:11 *139:238 0.0001466
25 *79:10 *139:238 9.954e-05
26 *79:11 *139:239 9.954e-05
27 *79:10 *139:239 7.333e-05
28 *79:11 *139:240 7.333e-05
29 *79:8 *139:224 1.559e-05
30 *79:9 *139:211 1.55900181e-05
31 *79:15 *393:7 6.071e-05
32 *79:13 *393:8 6.071e-05
33 *79:6 *393:9 3.135e-05
34 *79:7 *393:7 3.135e-05
35 *79:6 *393:7 4.23e-06
36 *79:7 *393:8 4.23000099e-06
37 *79:10 *104:20 0.00015819
38 *79:11 *104:14 0.00015819
39 *79:10 *377:15 0.00014608
40 *79:11 *377:11 0.000146080002

*RES
1 *79:9 *782:A 1.39997
2 *79:9 *79:8 0.745728
3 *79:4 *79:8 1.39997
4 *79:5 *79:4 2.36145
5 *79:6 *79:5 0.124267
6 *79:7 *79:6 1.24279
7 *79:7 *79:15 0.124267
8 *79:13 *79:15 0.994261
9 *79:13 *79:14 0.124267
10 *79:12 *79:14 1.36719
11 *79:10 *79:12 0.124267
12 *79:11 *79:10 8.32714272
13 *79:2 *815:Y 1.39997
14 *79:3 *79:11 1.39997
15 *79:3 *79:2 0.248534
*END

*D_NET *80 0.000847729

*CONN
*I *654:A I *C 67.135 22.185 *L 0.00172 *D CLKBUFX2
*I *670:Y O *C 66.845 27.695 *L 0 *D CLKBUFX2

*CAP
1 *654:A 3.68016e-05
2 *670:Y 3.68016e-05
3 *80:2 3.90989e-05
4 *80:3 0.0003681
5 *80:4 0.000366932

*RES
1 *80:3 *654:A 1.40001
2 *80:3 *80:4 2.3614285
3 *80:2 *80:4 0.124276
4 *670:Y *80:2 1.40001
*END

*D_NET *81 0.00208709

*CONN
*I *653:A I *C 67.425 37.845 *L 0.00172 *D CLKBUFX2
*I *671:Y O *C 51.475 40.165 *L 0 *D CLKBUFX2

*CAP
1 *653:A 3.67977e-05
2 *671:Y 3.67977e-05
3 *81:2 6.91971e-05
4 *81:3 5.47121e-05
5 *81:4 0.00041237
6 *81:5 0.000411521
7 *81:6 0.000253689
8 *81:7 0.000254539
9 *81:8 6.93985e-05
10 *81:9 5.49072e-05
11 *81:10 0.000168629
12 *81:11 0.000168629
13 *81:12 4.79478e-05
14 *81:13 4.79478e-05

*RES
1 *81:12 *653:A 1.4
2 *81:12 *81:13 0.248587
3 *81:4 *81:13 1.4
4 *81:5 *81:4 3.60428572
5 *81:5 *81:11 0.124293
6 *81:10 *81:11 1.24288
7 *81:6 *81:10 0.124293
8 *81:7 *81:6 1.74
9 *81:3 *81:7 1.4
10 *81:3 *81:2 0.37288
11 *81:9 *671:Y 1.4
12 *81:8 *81:2 0.248587
13 *81:8 *81:9 0.37288
*END

*D_NET *82 0.00110065

*CONN
*I *672:Y O *C 52.345 22.475 *L 0 *D CLKBUFX2
*I *734:AN I *C 48.285 19.575 *L 0.00174 *D NOR2BX1
*I *733:A I *C 48.285 22.475 *L 0.00162 *D NOR2XL
*I *732:A0 I *C 51.185 22.475 *L 0.00158 *D AOI21XL

*CAP
1 *672:Y 5.18009e-05
2 *734:AN 3.68e-05
3 *733:A 3.68e-05
4 *732:A0 7.90795e-05
5 *82:4 0.0001407
6 *82:5 0.0001407
7 *82:6 0.00018118
8 *82:7 0.00018118
9 *82:9 3.24485e-05
10 *82:4 *321:12 4.956e-05
11 *82:5 *321:7 4.956e-05
12 *82:4 *321:7 6.042e-05
13 *82:5 *321:8 6.0420001e-05

*RES
1 *82:5 *734:AN 1.39999998
2 *82:4 *733:A 1.39999998
3 *82:5 *82:4 1.24286
4 *82:7 *82:4 1.39999998
5 *82:7 *82:6 1.24286
6 *732:A0 *672:Y 0.773337
7 *82:9 *82:6 1.39999998
8 *82:9 *732:A0 1.39999998
9 *82:8 *82:9 0.193051
*END

*D_NET *83 0.00120729

*CONN
*I *816:Y O *C 22.185 48.575 *L 0 *D CLKBUFX2
*I *944:B I *C 25.085 50.315 *L 0.00158 *D NAND4XL
*I *933:A I *C 27.985 48.285 *L 0.00157 *D NAND2XL
*I *930:A0 I *C 27.405 48.575 *L 0.00157 *D OA21XL

*CAP
1 *816:Y 3.68005e-05
2 *944:B 3.68005e-05
3 *933:A 5.29396e-05
4 *930:A0 2.56608e-05
5 *83:4 0.000104581
6 *83:5 0.000104581
7 *83:6 0.00012563
8 *83:7 0.00010609
9 *83:10 3.24489e-05
10 *83:11 7.51595e-05
11 *83:12 5.26712e-05
12 *83:13 3.24489e-05
13 *83:14 7.584e-05
14 *83:12 *38:8 4.886e-05
15 *83:6 *38:9 4.886e-05
16 *83:6 *38:8 9.83e-05
17 *83:7 *38:9 9.83e-05
18 *83:14 *38:8 2.566e-05
19 *83:11 *38:9 2.56599988e-05

*RES
1 *930:A0 *933:A 0.386658
2 *83:13 *933:A 1.39999998
3 *83:9 *83:13 0.0299927
4 *83:14 *83:13 1.39999998
5 *83:4 *944:B 1.39999998
6 *83:11 *83:14 0.745715
7 *83:5 *83:4 0.745715
8 *83:11 *83:12 0.124286
9 *83:6 *83:5 1.39999998
10 *83:6 *83:12 0.497144
11 *83:7 *83:6 1.24286
12 *83:10 *83:7 1.39999998
13 *83:10 *816:Y 1.39999998
14 *83:8 *83:10 0.193051
*END

*D_NET *84 0.00147332

*CONN
*I *817:Y O *C 26.825 53.795 *L 0 *D CLKBUFX2
*I *941:A I *C 30.885 48.285 *L 0.00157 *D NAND2XL
*I *936:A0 I *C 32.045 45.385 *L 0.00157 *D OA21XL
*I *965:B I *C 30.595 50.895 *L 0.00167 *D NAND2XL

*CAP
1 *817:Y 3.68004e-05
2 *941:A 3.68004e-05
3 *936:A0 1.28208e-05
4 *965:B 3.68004e-05
5 *84:4 7.26215e-05
6 *84:5 7.26215e-05
7 *84:6 0.000158979
8 *84:7 0.000208948
9 *84:8 7.03119e-05
10 *84:9 7.69504e-05
11 *84:10 5.61289e-05
12 *84:11 4.0469e-05
13 *84:12 9.57494e-05
14 *84:13 0.00020906
15 *84:14 0.00020906
16 *84:15 4.00989e-05
17 *84:16 3.91005e-05

*RES
1 *84:15 *936:A0 0.193335
2 *84:16 *84:15 1.39999
3 *84:11 *84:16 0.12428
4 *84:11 *84:10 0.24856
5 *84:12 *84:10 0.24856
6 *84:7 *941:A 1.39999
7 *84:12 *84:7 0.870009
8 *84:7 *84:6 1.11857
9 *84:9 *965:B 1.39999
10 *84:9 *84:6 0.12428
11 *84:9 *84:8 0.497145
12 *84:13 *84:8 1.39999
13 *84:14 *84:13 1.61571431
14 *84:4 *817:Y 1.39999
15 *84:5 *84:14 1.39999
16 *84:5 *84:4 0.745705
*END

*D_NET *85 0.000961068

*CONN
*I *780:A I *C 38.715 59.015 *L 0.00155 *D DLY2X1
*I *818:Y O *C 37.555 55.825 *L 0 *D CLKBUFX2

*CAP
1 *780:A 3.68011e-05
2 *818:Y 1.31377e-05
3 *85:2 0.00032114
4 *85:3 0.00032114
5 *85:4 9.79909e-05
6 *85:5 9.79909e-05
7 *85:7 4.04224e-05
8 *85:8 3.24497e-05

*RES
1 *85:7 *818:Y 0.193329
2 *85:3 *85:7 1.39999998
3 *85:3 *85:2 1.36714
4 *85:5 *85:2 1.39999998
5 *85:5 *85:4 0.621429
6 *85:8 *780:A 1.39999998
7 *85:8 *85:4 1.39999998
8 *85:6 *85:8 0.193051
*END

*D_NET *86 0.00293244

*CONN
*I *819:Y O *C 18.705 53.795 *L 0 *D CLKBUFX2
*I *966:A I *C 39.015 56.0525 *L 0.00163 *D INVXL
*I *960:A I *C 31.755 54.085 *L 0.00152 *D NAND4XL

*CAP
1 *819:Y 3.68038e-05
2 *966:A 3.68038e-05
3 *960:A 3.68038e-05
4 *86:3 9.91868e-05
5 *86:4 9.91868e-05
6 *86:5 5.35674e-05
7 *86:6 5.35674e-05
8 *86:7 0.00050767
9 *86:8 0.000433582
10 *86:10 0.000280789
11 *86:11 0.000279914
12 *86:12 3.24503e-05
13 *86:13 0.000106337
14 *86:14 0.000156496
15 *86:15 0.000157177
16 *86:11 *366:11 6.203e-05
17 *86:10 *366:12 6.203e-05
18 *86:7 *366:11 4.86e-06
19 *86:8 *366:12 4.86e-06
20 *86:11 *366:7 4.927e-05
21 *86:10 *366:8 4.92700059e-05
22 *86:15 *137:8 6.882e-05
23 *86:14 *137:9 6.882e-05
24 *86:13 *137:8 9.607e-05
25 *86:7 *137:9 9.60699987e-05

*RES
1 *86:6 *819:Y 1.40001
2 *86:3 *966:A 1.40001
3 *86:6 *86:5 0.248577
4 *86:4 *86:3 0.745731
5 *86:10 *86:5 1.40001
6 *86:15 *86:4 1.40001
7 *86:10 *86:11 2.48572
8 *86:14 *86:15 1.8643
9 *86:8 *86:11 0.124265
10 *86:13 *86:14 0.124265
11 *86:8 *86:7 3.10714293
12 *86:7 *86:13 1.24284
13 *86:12 *960:A 1.40001
14 *86:12 *86:7 1.40001
15 *86:9 *86:12 0.193059
*END

*D_NET *87 0.00187888

*CONN
*I *657:A I *C 31.465 30.015 *L 0.00172 *D CLKBUFX2
*I *673:Y O *C 21.025 24.505 *L 0 *D CLKBUFX2

*CAP
1 *657:A 3.68035e-05
2 *673:Y 3.68035e-05
3 *87:2 0.000177885
4 *87:3 0.000177885
5 *87:4 0.00066646
6 *87:5 0.00066646
7 *87:6 5.83019e-05
8 *87:7 5.83019e-05

*RES
1 *87:2 *657:A 1.39999
2 *87:3 *87:2 1.73998
3 *87:4 *87:3 1.39999
4 *87:5 *87:4 4.4742856
5 *87:7 *87:5 1.39999
6 *87:6 *87:7 0.621413
7 *673:Y *87:6 1.39999
*END

*D_NET *88 0.0010724

*CONN
*I *656:A I *C 6.525 22.185 *L 0.00172 *D CLKBUFX2
*I *674:Y O *C 5.655 29.725 *L 0 *D CLKBUFX2

*CAP
1 *656:A 3.67998e-05
2 *674:Y 2.566e-05
3 *88:2 7.77301e-05
4 *88:3 4.59608e-05
5 *88:4 7.88994e-05
6 *88:5 8.91802e-05
7 *88:6 4.22906e-05
8 *88:7 0.000100371
9 *88:8 0.000100371
10 *88:9 0.000134642
11 *88:10 0.000134670391
12 *88:11 8.00686e-05
13 *88:12 0.00012576

*RES
1 *88:11 *656:A 1.39999998
2 *88:11 *88:12 0.372858
3 *88:5 *88:12 0.497144
4 *88:5 *88:6 0.248572
5 *88:6 *88:9 0.124286
6 *88:9 *88:10 1.11857
7 *88:7 *88:10 0.124286
8 *88:3 *674:Y 0.386658
9 *88:7 *88:8 0.745715
10 *88:4 *88:3 1.39999998
11 *88:2 *88:8 0.124286
12 *88:2 *88:4 0.745715
*END

*D_NET *89 0.00659495

*CONN
*I *809:A I *C 23.925 53.505 *L 0.00172 *D CLKBUFX2
*I *820:Y O *C 9.135 11.455 *L 0 *D DLY1X1

*CAP
1 *809:A 3.67952e-05
2 *820:Y 3.67952e-05
3 *89:2 0.00086065
4 *89:3 0.00086182
5 *89:4 0.000425499
6 *89:5 0.000424328
7 *89:6 0.000166736
8 *89:7 0.000166736
9 *89:8 0.000503678
10 *89:9 0.00050456
11 *89:11 7.98763e-05
12 *89:12 7.98763e-05
13 *89:13 6.53187e-05
14 *89:14 3.24555e-05
15 *89:15 6.61998e-05
16 *89:8 *369:11 0.00034235
17 *89:9 *369:12 0.00034235
18 *89:12 *369:7 3.477e-05
19 *89:11 *369:8 3.47700244e-05
20 *89:6 *372:19 5.334e-05
21 *89:7 *372:18 5.334e-05
22 *89:4 *372:5 8.335e-05
23 *89:5 *372:6 8.335e-05
24 *89:4 *372:11 6.144e-05
25 *89:5 *372:12 6.144e-05
26 *89:2 *372:17 3.7e-05
27 *89:3 *372:16 3.69999962e-05
28 *89:4 *50:11 0.00012356
29 *89:5 *50:10 0.00012356
30 *89:6 *50:9 8.441e-05
31 *89:7 *50:7 8.441e-05
32 *89:2 *50:9 0.00012209
33 *89:3 *50:7 0.00012209
34 *89:4 *50:6 5.372e-05
35 *89:5 *50:5 5.372e-05
36 *89:4 *50:4 0.00014578
37 *89:5 *50:3 0.000145779991

*RES
1 *89:3 *820:Y 1.39993
2 *89:3 *89:2 8.82428551
3 *89:2 *89:7 0.12428
4 *89:7 *89:6 2.48574
5 *89:5 *89:6 0.12428
6 *89:5 *89:4 6.46283
7 *89:9 *89:4 1.39993
8 *89:9 *89:8 4.97147
9 *89:11 *89:8 0.12428
10 *89:11 *89:12 0.99424
11 *89:12 *89:13 0.12428
12 *89:13 *89:15 0.37284
13 *89:14 *809:A 1.39993
14 *89:14 *89:15 1.39993
15 *89:10 *89:14 0.193085
*END

*D_NET *90 0.00204709

*CONN
*I *507:Y O *C 9.715 17.545 *L 0 *D DLY1X4
*I *516:D I *C 26.245 16.675 *L 0.0016 *D DFFQX1

*CAP
1 *507:Y 3.68065e-05
2 *516:D 3.68065e-05
3 *90:2 0.00093893
4 *90:3 0.00093893
5 *90:6 3.15914e-05
6 *90:7 3.15914e-05
7 *90:8 3.2451e-05

*RES
1 *90:8 *516:D 1.39997
2 *90:5 *90:8 0.193062
3 *90:2 *90:8 1.39997
4 *90:3 *90:2 7.08428574
5 *90:6 *90:3 1.39997
6 *90:6 *90:7 0.124312
7 *90:7 *507:Y 1.39997
8 *90:4 *90:7 0.182901
*END

*D_NET *91 0.00737883

*CONN
*I *821:Y O *C 8.265 48.865 *L 0 *D DLY1X4
*I *878:AN I *C 59.885 61.335 *L 0.00174 *D NOR2BXL

*CAP
1 *821:Y 3.68087e-05
2 *878:AN 3.68087e-05
3 *91:2 0.000397192
4 *91:3 0.000397192
5 *91:4 0.00193445
6 *91:5 0.00193445
7 *91:6 8.87306e-05
8 *91:7 8.87306e-05
9 *91:8 0.00016592
10 *91:9 0.00016592
11 *91:10 0.000115208
12 *91:11 0.000115179
13 *91:12 5.82977e-05
14 *91:13 5.71465e-05
15 *91:14 0.000251138
16 *91:15 0.000266782
17 *91:16 0.000412334
18 *91:17 0.0003979
19 *91:2 *476:15 4.451e-05
20 *91:3 *476:13 4.451e-05
21 *91:4 *476:10 0.00018482
22 *91:5 *476:8 0.000184819993

*RES
1 *91:3 *878:AN 1.39997
2 *91:3 *91:2 2.85846
3 *91:4 *91:2 1.39997
4 *91:5 *91:4 30.9333324
5 *91:17 *91:5 1.39997
6 *91:16 *91:17 3.85298
7 *91:15 *91:16 0.248747
8 *91:14 *91:15 2.48558
9 *91:11 *91:14 0.124137
10 *91:10 *91:11 1.11865
11 *91:10 *91:13 0.124137
12 *91:12 *91:13 0.372884
13 *91:8 *91:12 1.39997
14 *91:9 *91:8 1.98856
15 *91:6 *91:9 1.39997
16 *91:7 *91:6 0.621631
17 *821:Y *91:7 1.39997
*END

*D_NET *92 0.00102227

*CONN
*I *561:A I *C 27.985 14.065 *L 0.00273 *D INVX1
*I *576:Y O *C 26.535 14.065 *L 0 *D CLKBUFX2
*I *578:A I *C 26.825 9.135 *L 0.00172 *D CLKBUFX2

*CAP
1 *561:A 3.67989e-05
2 *576:Y 3.67989e-05
3 *578:A 3.67989e-05
4 *92:3 0.0002415
5 *92:4 0.000153471
6 *92:5 4.22197e-05
7 *92:6 0.000163602
8 *92:7 0.00016243
9 *92:8 0.000105061
10 *92:9 4.35905e-05

*RES
1 *92:9 *561:A 1.39999998
2 *92:6 *578:A 1.39999998
3 *92:8 *92:9 0.248572
4 *92:5 *576:Y 1.39999998
5 *92:6 *92:7 0.870001
6 *92:3 *92:8 0.621429
7 *92:3 *92:5 0.248572
8 *92:4 *92:7 0.124286
9 *92:4 *92:3 0.994287
*END

*D_NET *93 0.00380808

*CONN
*I *675:Y O *C 67.715 42.775 *L 0 *D DLY1X1
*I *740:B0 I *C 59.885 27.405 *L 0.00169 *D OAI21XL
*I *764:A I *C 52.345 24.505 *L 0.00273 *D INVX1
*I *760:A I *C 52.925 27.405 *L 0.00157 *D NAND2XL
*I *737:A1 I *C 57.275 27.405 *L 0.00271 *D OAI32X1

*CAP
1 *675:Y 3.84801e-05
2 *740:B0 3.68014e-05
3 *764:A 3.68014e-05
4 *760:A 3.68014e-05
5 *737:A1 3.68014e-05
6 *93:5 7.78195e-05
7 *93:6 6.33865e-05
8 *93:7 0.00010728
9 *93:8 0.000121713
10 *93:9 0.00012964
11 *93:10 0.000254951
12 *93:11 0.000391146
13 *93:12 0.000390294
14 *93:15 8.28153e-05
15 *93:16 0.000157414
16 *93:17 8.19639e-05
17 *93:18 3.24482e-05
18 *93:19 4.18213e-05
19 *93:20 3.24482e-05
20 *93:21 5.09293e-05
21 *93:22 4.12189e-05
22 *93:23 0.00052636
23 *93:24 5.87843e-05
24 *93:25 0.00052636
25 *93:25 *78:6 0.00022681
26 *93:23 *78:7 0.000226809993

*RES
1 *675:Y *93:24 0.580023
2 *93:25 *93:24 1.40001
3 *93:6 *764:A 1.40001
4 *93:23 *93:25 6.33857155
5 *93:6 *93:5 0.497135
6 *93:11 *93:23 1.40001
7 *93:5 *93:8 0.248568
8 *93:12 *93:11 3.48004
9 *93:7 *760:A 1.40001
10 *93:8 *93:7 0.745703
11 *93:20 *740:B0 1.40001
12 *93:14 *93:20 0.0299829
13 *93:22 *93:12 0.124284
14 *93:15 *93:7 1.40001
15 *93:21 *93:20 1.40001
16 *93:21 *93:22 0.248568
17 *93:15 *93:17 0.621419
18 *93:19 *93:21 0.248568
19 *93:16 *93:17 0.124284
20 *93:9 *93:19 0.124284
21 *93:16 *93:10 1.24284
22 *93:10 *93:9 0.869987
23 *93:18 *737:A1 1.40001
24 *93:18 *93:10 1.40001
25 *93:13 *93:18 0.193051
*END

*D_NET *94 0.00461971

*CONN
*I *822:Y O *C 7.975 61.625 *L 0 *D DLY1X1
*I *903:A0 I *C 29.435 59.015 *L 0.00271 *D OAI21X1
*I *960:B I *C 32.045 54.085 *L 0.00158 *D NAND4XL
*I *904:A I *C 28.855 58.725 *L 0.00157 *D NAND2XL

*CAP
1 *822:Y 3.6803e-05
2 *903:A0 2.56584e-05
3 *960:B 3.6803e-05
4 *904:A 5.29366e-05
5 *94:4 0.000136789
6 *94:5 0.000136789
7 *94:6 0.000213811
8 *94:7 0.000213811
9 *94:8 0.000166928
10 *94:9 0.000216967
11 *94:10 0.000109539
12 *94:11 0.000109335
13 *94:12 8.31676e-05
14 *94:13 4.58371e-05
15 *94:14 4.58371e-05
16 *94:15 0.000605731
17 *94:16 0.00060661
18 *94:17 3.51368e-05
19 *94:18 3.39428e-05
20 *94:19 4.32823e-05
21 *94:20 4.44764e-05
22 *94:21 6.13506e-05
23 *94:22 6.13506e-05
24 *94:10 *11:9 3.341e-05
25 *94:11 *11:10 3.341e-05
26 *94:6 *11:11 0.0001828
27 *94:7 *11:12 0.0001828
28 *94:13 *11:4 1.168e-05
29 *94:14 *11:5 1.1680009e-05
30 *94:6 *30:10 0.00016843
31 *94:7 *30:11 0.00016843
32 *94:22 *30:11 2.337e-05
33 *94:21 *30:6 2.33700143e-05
34 *94:4 *379:10 1.168e-05
35 *94:5 *379:9 1.168e-05
36 *94:4 *379:5 8.542e-05
37 *94:5 *379:6 8.54200026e-05
38 *94:4 *100:4 1.268e-05
39 *94:5 *100:5 1.268e-05
40 *94:4 *100:12 0.00021893
41 *94:5 *100:11 0.000218930001

*RES
1 *904:A *903:A0 0.386678
2 *94:5 *960:B 1.4
3 *94:14 *904:A 1.4
4 *94:5 *94:4 2.61
5 *94:14 *94:13 0.621436
6 *94:8 *94:4 1.4
7 *94:9 *94:13 1.4
8 *94:9 *94:8 1.36713
9 *94:12 *94:9 0.372872
10 *94:12 *94:10 0.124308
11 *94:11 *94:10 1.11856
12 *94:6 *94:11 0.124308
13 *94:7 *94:6 3.48000002
14 *94:7 *94:22 0.124308
15 *94:21 *94:22 0.87
16 *94:20 *822:Y 1.4
17 *94:21 *94:15 0.124308
18 *94:19 *94:20 0.248564
19 *94:16 *94:15 3.23144
20 *94:18 *94:19 0.124308
21 *94:17 *94:16 1.4
22 *94:17 *94:18 0.248564
*END

*D_NET *95 0.00728486

*CONN
*I *789:A I *C 67.135 35.235 *L 0.00172 *D CLKBUFX2
*I *823:Y O *C 7.975 39.875 *L 0 *D DLY1X4

*CAP
1 *789:A 3.68007e-05
2 *823:Y 3.68007e-05
3 *95:2 0.000248145
4 *95:3 0.00024832
5 *95:4 0.000496659
6 *95:5 0.000495814
7 *95:6 8.36248e-05
8 *95:7 8.4295e-05
9 *95:8 4.72903e-05
10 *95:9 4.79701e-05
11 *95:10 0.000162257
12 *95:11 0.000162257
13 *95:12 0.000322796
14 *95:13 0.000322796
15 *95:14 0.00063651
16 *95:15 0.00063583
17 *95:16 0.000127943
18 *95:17 0.000127943
19 *95:18 0.000289647
20 *95:19 0.000289647
21 *95:20 0.000195057
22 *95:21 0.000195057
23 *95:23 3.24495e-05
24 *95:12 *374:7 0.0001733
25 *95:13 *374:8 0.0001733
26 *95:8 *374:7 1.364e-05
27 *95:9 *374:8 1.364e-05
28 *95:18 *374:21 2.581e-05
29 *95:19 *374:7 2.581e-05
30 *95:18 *374:7 3.718e-05
31 *95:19 *374:8 3.718e-05
32 *95:10 *374:7 3.063e-05
33 *95:11 *374:8 3.06300049e-05
34 *95:12 *387:6 3.751e-05
35 *95:13 *387:7 3.751e-05
36 *95:12 *387:14 3.572e-05
37 *95:13 *387:13 3.572e-05
38 *95:12 *387:2 7.117e-05
39 *95:13 *387:3 7.11700032e-05
40 *95:2 *190:21 0.00010505
41 *95:3 *190:20 0.00010505
42 *95:4 *190:21 0.00021761
43 *95:5 *190:20 0.00021761
44 *95:6 *190:20 9.78e-05
45 *95:7 *190:19 9.78e-05
46 *95:6 *190:19 3.677e-05
47 *95:7 *190:18 3.677e-05
48 *95:4 *190 9.728e-05
49 *95:5 *190:12 9.72800057e-05

*RES
1 *95:17 *789:A 1.40003
2 *95:17 *95:16 0.621459
3 *95:4 *95:16 1.40003
4 *95:5 *95:4 4.72289
5 *95:5 *95:2 0.124255
6 *95:3 *95:2 3.35571
7 *95:6 *95:3 0.124255
8 *95:7 *95:6 1.36717
9 *95:21 *95:7 1.40003
10 *95:21 *95:20 1.61568
11 *95:14 *95:20 1.40003
12 *95:15 *95:14 5.96571445
13 *95:18 *95:15 0.124255
14 *95:19 *95:18 3.23146
15 *95:19 *95:12 0.124255
16 *95:13 *95:12 4.72289
17 *95:10 *95:13 0.124255
18 *95:11 *95:10 1.61568
19 *95:11 *95:8 0.124255
20 *95:9 *95:8 0.372857
21 *95:23 *95:9 1.40003
22 *95:23 *823:Y 1.40003
23 *95:22 *95:23 0.193074
*END

*D_NET *96 0.00619364

*CONN
*I *676:Y O *C 67.715 11.455 *L 0 *D DLY1X1
*I *765:A I *C 38.715 17.255 *L 0.00273 *D CLKINVX1
*I *757:A I *C 37.265 17.255 *L 0.00264 *D NAND3X1
*I *724:A I *C 38.425 14.065 *L 0.00264 *D NAND3X1
*I *722:B0 I *C 42.195 14.355 *L 0.00169 *D OAI21XL
*I *715:A1 I *C 42.485 11.745 *L 0.00271 *D OAI32X1

*CAP
1 *676:Y 2.5662e-05
2 *765:A 3.68017e-05
3 *757:A 3.68017e-05
4 *724:A 1.28183e-05
5 *722:B0 3.68017e-05
6 *715:A1 3.68017e-05
7 *96:6 0.000168062
8 *96:7 0.000182546
9 *96:8 0.000105395
10 *96:9 8.40056e-05
11 *96:10 0.000177867
12 *96:11 0.000193622
13 *96:12 0.000833177
14 *96:13 0.00083338
15 *96:14 3.72087e-05
16 *96:15 6.73596e-05
17 *96:16 0.000196763
18 *96:17 0.00018013
19 *96:18 5.58766e-05
20 *96:19 5.58766e-05
21 *96:20 0.000102508
22 *96:21 0.000103195
23 *96:22 0.00012667
24 *96:23 0.00012667
25 *96:24 4.63137e-05
26 *96:25 4.69877e-05
27 *96:26 0.000268472
28 *96:27 0.000267798
29 *96:31 6.78047e-05
30 *96:32 9.12668e-05
31 *96:33 4.00953e-05
32 *96:34 3.91034e-05
33 *96:35 3.24527e-05
34 *96:36 9.85025e-05
35 *96:37 5.89413e-05
36 *96:38 5.82419e-05
37 *96:39 4.62501e-05
38 *96:40 4.59577e-05
39 *96:41 3.24527e-05
40 *96:12 *140:108 0.00014429
41 *96:13 *140:89 0.00014429
42 *96:12 *140:89 0.00031502
43 *96:13 *140:90 0.00031502
44 *96:12 *140:90 0.0001092
45 *96:13 *140:109 0.000109199994

*RES
1 *676:Y *96:40 0.386678
2 *96:30 *96:41 0.193074
3 *96:41 *96:40 1.40005
4 *96:10 *96:41 1.40005
5 *96:11 *96:10 1.61574
6 *96:11 *96:16 0.248617
7 *96:17 *96:16 1.49138
8 *96:18 *96:17 0.124255
9 *96:19 *96:18 0.497128
10 *96:12 *96:19 0.124255
11 *96:14 *715:A1 1.40005
12 *96:13 *96:12 6.96000004
13 *96:15 *96:14 0.248617
14 *96:13 *96:20 0.124255
15 *96:9 *96:15 0.372872
16 *96:21 *96:20 0.87
17 *96:9 *96:8 0.497128
18 *96:8 *96:21 1.40005
19 *96:8 *96:36 0.745745
20 *96:36 *96:37 0.248617
21 *96:38 *722:B0 1.40005
22 *96:37 *96:38 0.248617
23 *96:38 *96:39 0.248617
24 *96:26 *96:39 1.40005
25 *96:33 *724:A 0.193286
26 *96:27 *96:26 1.61574
27 *96:34 *96:33 1.40005
28 *96:27 *96:24 0.124255
29 *96:35 *765:A 1.40005
30 *96:29 *96:35 0.193074
31 *96:31 *96:34 0.124255
32 *96:25 *96:24 0.248617
33 *96:22 *96:35 1.40005
34 *96:31 *96:32 0.497128
35 *96:32 *96:25 1.40005
36 *96:23 *96:22 0.621383
37 *96:7 *96:32 0.248617
38 *96:6 *757:A 1.40005
39 *96:6 *96:23 1.40005
40 *96:7 *96:6 0.87
41 *96:28 *96:6 0.193074
*END

*D_NET *97 0.000861542

*CONN
*I *497:Y O *C 56.115 29.435 *L 0 *D DLY1X4
*I *496:A I *C 58.725 35.235 *L 0.00172 *D CLKBUFX2

*CAP
1 *497:Y 3.68004e-05
2 *496:A 3.68004e-05
3 *97:2 0.00017266
4 *97:3 0.00017266
5 *97:4 0.00010153
6 *97:5 0.00010153
7 *97:6 0.00011978
8 *97:7 0.00011978

*RES
1 *97:4 *496:A 1.39999
2 *97:5 *97:4 0.745714
3 *97:6 *97:5 1.39999
4 *97:7 *97:6 1.11857
5 *97:2 *97:7 1.39999
6 *97:3 *97:2 1.49142861
7 *497:Y *97:3 1.39999
*END

*D_NET *98 0.00454449

*CONN
*I *824:Y O *C 67.715 45.965 *L 0 *D DLY1X1
*I *939:A I *C 50.605 58.725 *L 0.00157 *D NAND2XL
*I *938:A0 I *C 45.385 61.045 *L 0.00271 *D OAI21X1
*I *841:B I *C 51.475 55.825 *L 0.00163 *D NAND4BXL
*I *958:B I *C 51.475 59.015 *L 0.00166 *D NAND3XL

*CAP
1 *824:Y 3.67982e-05
2 *939:A 3.67982e-05
3 *938:A0 3.67982e-05
4 *841:B 3.67982e-05
5 *958:B 3.67982e-05
6 *98:5 0.000110539
7 *98:6 0.000110539
8 *98:7 0.00014447
9 *98:8 0.000144501
10 *98:9 8.76898e-05
11 *98:10 8.64905e-05
12 *98:11 0.000106771
13 *98:12 0.000106771
14 *98:13 0.000175369
15 *98:14 0.000175369
16 *98:15 0.000231913
17 *98:16 0.000231033
18 *98:17 0.000311341
19 *98:18 0.000298102
20 *98:19 0.000320282
21 *98:20 0.00033733
22 *98:23 7.49605e-05
23 *98:24 3.24487e-05
24 *98:25 0.000173372
25 *98:26 0.000173372
26 *98:27 0.000104383
27 *98:28 0.00017749
28 *98:29 0.000176322
29 *98:30 3.85895e-05
30 *98:31 3.85895e-05
31 *98:17 *44:19 1.25e-05
32 *98:18 *44:18 1.25e-05
33 *98:17 *44:7 6.981e-05
34 *98:18 *44:8 6.981e-05
35 *98:19 *44:22 9.506e-05
36 *98:20 *44:20 9.506e-05
37 *98:19 *44:9 1.886e-05
38 *98:20 *44:10 1.88600038e-05

*RES
1 *98:28 *824:Y 1.4
2 *98:28 *98:29 1.74
3 *98:29 *98:8 0.124308
4 *98:8 *98:7 1.24287
5 *98:30 *98:7 0.124308
6 *98:30 *98:31 0.248564
7 *98:12 *98:31 0.124308
8 *98:12 *98:11 1.24287
9 *98:11 *98:10 0.124308
10 *98:10 *98:9 0.621436
11 *98:15 *98:9 1.4
12 *98:16 *98:15 1.98856
13 *98:13 *98:16 0.124308
14 *98:5 *938:A0 1.4
15 *98:14 *98:13 1.49144
16 *98:6 *98:5 0.745692
17 *98:25 *841:B 1.4
18 *98:14 *98:19 0.124308
19 *98:23 *98:6 1.4
20 *98:26 *958:B 1.4
21 *98:25 *98:26 1.24287
22 *98:22 *98:26 0.193074
23 *98:20 *98:19 3.48000002
24 *98:18 *98:23 0.372872
25 *98:27 *98:26 1.4
26 *98:20 *98:27 0.248564
27 *98:18 *98:17 2.23713
28 *98:17 *98:27 0.372872
29 *98:24 *939:A 1.4
30 *98:24 *98:17 1.4
31 *98:21 *98:24 0.193074
*END

*D_NET *99 0.00178489

*CONN
*I *819:A I *C 19.285 53.505 *L 0.00172 *D CLKBUFX2
*I *825:Y O *C 8.845 53.215 *L 0 *D DLY1X1

*CAP
1 *819:A 3.68034e-05
2 *825:Y 3.89628e-05
3 *99:2 3.71875e-05
4 *99:3 3.71875e-05
5 *99:4 0.00068037
6 *99:5 0.000197752
7 *99:6 9.1152e-05
8 *99:7 0.00057377
9 *99:9 5.92592e-05
10 *99:10 3.24534e-05

*RES
1 *99:2 *819:A 1.39998
2 *99:3 *99:2 0.24859
3 *99:7 *99:3 1.39998
4 *99:4 *99:7 2.6099999
5 *99:5 *99:4 0.869987
6 *99:6 *99:5 0.621436
7 *825:Y *99:9 0.580018
8 *99:10 *99:6 1.39998
9 *99:10 *99:9 1.39998
10 *99:8 *99:10 0.193074
*END

*D_NET *100 0.0021518

*CONN
*I *826:Y O *C 31.755 63.655 *L 0 *D DLY1X1
*I *960:D I *C 32.625 53.795 *L 0.00166 *D NAND4XL
*I *915:A I *C 36.105 56.115 *L 0.00157 *D NAND2XL
*I *910:A0 I *C 31.755 61.045 *L 0.00157 *D OA21XL

*CAP
1 *826:Y 3.68005e-05
2 *960:D 3.68005e-05
3 *915:A 3.68005e-05
4 *910:A0 3.68005e-05
5 *100:4 4.83697e-05
6 *100:5 4.83697e-05
7 *100:6 5.03675e-05
8 *100:7 5.03675e-05
9 *100:8 0.000132337
10 *100:9 0.000170531
11 *100:10 7.19983e-05
12 *100:11 0.000210478
13 *100:12 0.00029756
14 *100:13 0.000119537
15 *100:8 *486:2 0.0001343
16 *100:9 *486:3 0.0001343
17 *100:9 *486:2 3.643e-05
18 *100:10 *486:3 3.64299926e-05
19 *100:4 *94:4 1.268e-05
20 *100:5 *94:5 1.268e-05
21 *100:12 *94:4 0.00021893
22 *100:11 *94:5 0.000218930001

*RES
1 *100:6 *915:A 1.40002
2 *100:5 *960:D 1.40002
3 *100:7 *100:6 0.497158
4 *100:5 *100:4 0.497158
5 *100:8 *100:7 1.40002
6 *100:9 *100:4 1.40002
7 *100:9 *100:8 1.49143
8 *100:13 *826:Y 1.40002
9 *100:10 *100:9 0.372869
10 *100:12 *910:A0 1.40002
11 *100:12 *100:13 0.869985
12 *100:11 *100:10 1.40002
13 *100:11 *100:12 2.73428583
*END

*D_NET *101 0.00559432

*CONN
*I *794:A I *C 55.825 53.505 *L 0.00172 *D CLKBUFX2
*I *827:Y O *C 15.225 43.645 *L 0 *D DLY1X4

*CAP
1 *794:A 3.68038e-05
2 *827:Y 3.68038e-05
3 *101:2 0.00081983
4 *101:3 0.00081983
5 *101:4 0.000146265
6 *101:5 0.000163115
7 *101:6 0.000233571
8 *101:7 0.000233746
9 *101:8 0.000180792
10 *101:9 0.000180792
11 *101:10 0.000267435
12 *101:11 0.000251259
13 *101:12 0.000105195
14 *101:13 0.000105195
15 *101:14 4.91635e-05
16 *101:15 4.91635e-05
17 *101:16 6.88289e-05
18 *101:17 6.88289e-05
19 *101:19 4.10947e-05
20 *101:20 0.000379648
21 *101:21 3.38015e-05
22 *101:22 0.000379648
23 *101:10 *375:3 9.604e-05
24 *101:11 *375:4 9.604e-05
25 *101:16 *375:5 1.212e-05
26 *101:17 *375:6 1.212e-05
27 *101:4 *375:18 2.786e-05
28 *101:5 *375:17 2.78600012e-05
29 *101:6 *174:23 6.252e-05
30 *101:7 *174:19 6.252e-05
31 *101:6 *174:19 3.751e-05
32 *101:7 *174:9 3.751e-05
33 *101:6 *174:9 6.134e-05
34 *101:7 *174:10 6.134e-05
35 *101:8 *174:10 2.337e-05
36 *101:9 *174:13 2.337e-05
37 *101:6 *174:8 1.754e-05
38 *101:7 *174:11 1.754e-05
39 *101:6 *174:11 1.364e-05
40 *101:7 *174:12 1.36400143e-05
41 *101:2 *417:17 7.453e-05
42 *101:3 *417:8 7.453e-05
43 *101:2 *417:8 3.685e-05
44 *101:3 *417:9 3.685e-05
45 *101:2 *417:6 8.45e-06
46 *101:3 *417:7 8.45000224e-06

*RES
1 *101:15 *827:Y 1.39997
2 *101:15 *101:14 0.248621
3 *101:11 *101:14 1.39997
4 *101:11 *101:10 2.73427
5 *101:5 *101:10 0.248621
6 *101:5 *101:4 1.74001
7 *101:4 *101:17 0.12431
8 *101:17 *101:16 0.62144
9 *101:3 *101:16 0.12431
10 *101:3 *101:2 7.33285713
11 *101:2 *101:9 0.12431
12 *101:9 *101:8 1.74001
13 *101:7 *101:8 0.12431
14 *101:7 *101:6 3.2314
15 *101:6 *101:19 0.12431
16 *101:12 *794:A 1.39997
17 *101:20 *101:19 1.39997
18 *101:13 *101:12 0.74575
19 *101:20 *101:22 3.60433
20 *101:21 *101:13 1.39997
21 *101:21 *101:22 1.39997
22 *101:18 *101:21 0.193011
*END

*D_NET *102 0.00426813

*CONN
*I *575:A I *C 41.035 11.745 *L 0.00172 *D CLKBUFX2
*I *528:A0 I *C 31.41 17.2675 *L 0.00263 *D AOI211X1
*I *544:A0 I *C 31.465 14.355 *L 0.00264 *D OAI22X1
*I *577:Y O *C 9.135 9.425 *L 0 *D DLY1X1

*CAP
1 *575:A 3.68037e-05
2 *528:A0 3.68037e-05
3 *544:A0 3.68037e-05
4 *577:Y 3.68037e-05
5 *102:4 0.000265825
6 *102:5 0.00026559
7 *102:6 0.00030801
8 *102:7 0.000308922
9 *102:8 5.12507e-05
10 *102:9 5.12507e-05
11 *102:10 4.26728e-05
12 *102:11 4.26728e-05
13 *102:12 0.000177527
14 *102:13 6.10476e-05
15 *102:14 0.000177527
16 *102:15 0.000143179
17 *102:16 0.00059174
18 *102:17 0.00026057
19 *102:18 0.000149851
20 *102:19 6.49302e-05
21 *102:20 0.000563821
22 *102:21 6.49302e-05
23 *102:4 *247:7 5.802e-05
24 *102:5 *247:8 5.802e-05
25 *102:4 *247:8 6.364e-05
26 *102:5 *247:9 6.36400012e-05
27 *102:4 *181:17 6.034e-05
28 *102:5 *181:15 6.034e-05
29 *102:6 *181:13 2.616e-05
30 *102:7 *181:5 2.616e-05
31 *102:6 *181:5 3.964e-05
32 *102:7 *181:6 3.964e-05
33 *102:4 *181:18 1.13e-05
34 *102:5 *181:16 1.13e-05
35 *102:6 *181:11 5.71e-06
36 *102:7 *181:10 5.71000194e-06

*RES
1 *102:18 *528:A0 1.39998
2 *102:21 *575:A 1.39998
3 *102:17 *544:A0 1.39998
4 *102:17 *102:18 1.24283
5 *102:19 *102:21 0.497158
6 *102:15 *102:17 1.6157
7 *102:20 *102:19 1.39998
8 *102:16 *102:15 1.39998
9 *102:16 *102:20 4.10142851
10 *102:13 *102:16 0.372869
11 *102:13 *102:14 0.12429
12 *102:12 *102:14 1.49141
13 *102:11 *102:12 0.12429
14 *102:10 *102:11 0.248579
15 *102:4 *102:10 0.12429
16 *102:5 *102:4 3.72856
17 *102:5 *102:6 0.12429
18 *102:7 *102:6 3.72856
19 *102:9 *102:7 1.39998
20 *102:8 *102:9 0.372869
21 *577:Y *102:8 1.39998
*END

*D_NET *103 0.00382692

*CONN
*I *792:A I *C 67.425 50.895 *L 0.00172 *D CLKBUFX2
*I *828:Y O *C 30.885 53.215 *L 0 *D DLY1X1

*CAP
1 *792:A 3.68027e-05
2 *828:Y 3.68027e-05
3 *103:2 0.000338842
4 *103:3 0.00050018
5 *103:4 0.00027122
6 *103:5 0.000308687
7 *103:6 0.000308687
8 *103:7 0.000460462
9 *103:8 0.00046066
10 *103:9 4.00541e-05
11 *103:10 4.00541e-05
12 *103:11 0.000109202
13 *103:12 9.93567e-05
14 *103:13 8.42296e-05
15 *103:14 8.42296e-05
16 *103:15 0.000100242
17 *103:15 *36:2 3.026e-05
18 *103:12 *36:3 3.026e-05
19 *103:7 *36:4 3.016e-05
20 *103:8 *36:5 3.016e-05
21 *103:7 *36:6 2.474e-05
22 *103:8 *36:7 2.474e-05
23 *103:7 *36:8 2.117e-05
24 *103:8 *36:9 2.117e-05
25 *103:5 *36:2 5.781e-05
26 *103:6 *36:3 5.781e-05
27 *103:2 *36:10 5.199e-05
28 *103:3 *36:11 5.199e-05
29 *103:3 *36:12 2.786e-05
30 *103:4 *36:13 2.786e-05
31 *103:14 *36:14 2.962e-05
32 *103:13 *36:15 2.96200005e-05

*RES
1 *103:13 *792:A 1.39999
2 *103:13 *103:14 0.745737
3 *103:15 *103:14 1.39999
4 *103:12 *103:15 1.11857
5 *103:5 *103:12 0.124255
6 *103:6 *103:5 3.47997
7 *103:6 *103:7 0.124255
8 *103:8 *103:7 4.4742856
9 *103:11 *103:8 0.124255
10 *103:2 *103:11 0.994316
11 *103:3 *103:2 2.98288
12 *103:4 *103:3 2.60998
13 *103:10 *828:Y 1.39999
14 *103:9 *103:4 1.39999
15 *103:9 *103:10 0.248579
*END

*D_NET *104 0.002864

*CONN
*I *781:A I *C 38.715 45.675 *L 0.00172 *D CLKBUFX2
*I *829:Y O *C 33.495 37.555 *L 0 *D DLY1X1
*I *965:A I *C 30.015 50.895 *L 0.00157 *D NAND2XL
*I *920:A I *C 33.785 48.285 *L 0.00157 *D NAND2XL

*CAP
1 *781:A 3.68018e-05
2 *829:Y 3.68018e-05
3 *965:A 3.68018e-05
4 *920:A 3.68018e-05
5 *104:4 0.000154141
6 *104:5 0.00014236
7 *104:6 3.82601e-05
8 *104:7 3.82601e-05
9 *104:8 0.00024954
10 *104:9 0.00024954
11 *104:10 0.000137139
12 *104:11 8.67593e-05
13 *104:12 4.353e-05
14 *104:13 4.353e-05
15 *104:14 0.000101099
16 *104:15 0.000116532
17 *104:16 0.000115359
18 *104:17 4.04686e-05
19 *104:18 4.04686e-05
20 *104:19 8.16683e-05
21 *104:20 0.000101099
22 *104:21 4.19003e-05
23 *104:20 *376:11 5.743e-05
24 *104:14 *376:12 5.743e-05
25 *104:21 *376:7 3.7e-05
26 *104:4 *376:8 3.7e-05
27 *104:4 *376:8 4.854e-05
28 *104:5 *376:13 4.854e-05
29 *104:19 *376:9 8.383e-05
30 *104:10 *376:10 8.383e-05
31 *104:10 *376:9 6.258e-05
32 *104:11 *376:10 6.258e-05
33 *104:20 *79:10 0.00015819
34 *104:14 *79:11 0.00015819

*RES
1 *104:15 *829:Y 1.4
2 *104:6 *781:A 1.4
3 *104:15 *104:16 0.994286
4 *104:7 *104:6 0.248571
5 *104:16 *104:17 0.124286
6 *104:8 *104:7 1.4
7 *104:17 *104:18 0.248571
8 *104:9 *104:8 1.98857141
9 *104:18 *104:5 0.124286
10 *104:4 *104:9 1.4
11 *104:5 *104:4 1.74
12 *104:4 *104:21 0.372857
13 *104:11 *104:21 0.124286
14 *104:10 *920:A 1.4
15 *104:11 *104:10 0.994286
16 *104:10 *104:19 0.87
17 *104:20 *104:19 1.4
18 *104:12 *965:A 1.4
19 *104:14 *104:20 1.61571
20 *104:13 *104:12 0.248571
21 *104:13 *104:14 1.4
*END

*D_NET *105 0.0035791

*CONN
*I *830:Y O *C 67.425 63.655 *L 0 *D DLY1X1
*I *934:A I *C 66.265 50.895 *L 0.00157 *D NAND2XL
*I *931:A0 I *C 65.395 55.825 *L 0.00271 *D OAI21X1
*I *962:A I *C 53.795 53.505 *L 0.00157 *D NAND2XL

*CAP
1 *830:Y 2.56605e-05
2 *934:A 3.67942e-05
3 *931:A0 3.67942e-05
4 *962:A 3.67942e-05
5 *105:4 9.02503e-05
6 *105:5 9.02503e-05
7 *105:6 6.28998e-05
8 *105:7 6.40738e-05
9 *105:8 8.46125e-05
10 *105:9 8.46125e-05
11 *105:10 0.000185861
12 *105:11 0.000184687
13 *105:12 0.000399389
14 *105:13 0.00042274
15 *105:14 0.000100178
16 *105:15 5.83005e-05
17 *105:16 7.68331e-05
18 *105:17 5.71007e-05
19 *105:18 0.000210032
20 *105:19 4.59605e-05
21 *105:20 0.000211231
22 *105:21 0.00013065
23 *105:22 0.00013065
24 *105:14 *405:12 5.86e-06
25 *105:13 *405:13 5.86e-06
26 *105:13 *405:13 2.736e-05
27 *105:12 *405:14 2.736e-05
28 *105:10 *405:8 0.00013625
29 *105:11 *405:9 0.000136249996
30 *105:13 *132:6 1.824e-05
31 *105:12 *132:7 1.824e-05
32 *105:13 *132:8 4.927e-05
33 *105:12 *132:9 4.927e-05
34 *105:13 *132:9 0.0001118
35 *105:12 *132:10 0.0001118
36 *105:8 *132:4 2.759e-05
37 *105:9 *132:5 2.75900034e-05

*RES
1 *830:Y *105:19 0.386648
2 *105:20 *105:19 1.40003
3 *105:18 *105:20 1.98854
4 *105:18 *105:22 0.124255
5 *105:7 *934:A 1.40003
6 *105:21 *105:22 1.1186
7 *105:7 *105:6 0.248587
8 *105:17 *105:21 0.124255
9 *105:6 *105:11 0.124255
10 *105:15 *105:17 0.372842
11 *105:4 *931:A0 1.40003
12 *105:11 *105:10 1.6157
13 *105:16 *105:15 1.40003
14 *105:5 *105:4 0.372842
15 *105:14 *105:10 1.40003
16 *105:14 *105:16 0.621429
17 *105:13 *105:5 1.40003
18 *105:13 *105:14 0.497173
19 *105:12 *105:13 4.97142839
20 *105:8 *105:12 1.40003
21 *105:9 *105:8 0.745684
22 *962:A *105:9 1.40003
*END

*D_NET *106 0.001223

*CONN
*I *677:Y O *C 66.845 48.865 *L 0 *D DLY1X4
*I *761:B I *C 57.275 45.675 *L 0.00167 *D NAND2XL
*I *756:B I *C 61.335 48.285 *L 0.00252 *D XNOR2X2

*CAP
1 *677:Y 3.67986e-05
2 *761:B 3.67986e-05
3 *756:B 3.67986e-05
4 *106:3 8.05003e-05
5 *106:4 8.16685e-05
6 *106:5 0.000283787
7 *106:6 0.00038666
8 *106:7 0.000136681
9 *106:10 3.86218e-05
10 *106:11 3.979e-05
11 *106:12 3.24503e-05
12 *106:13 3.24503e-05

*RES
1 *106:4 *761:B 1.39998
2 *106:4 *106:3 0.869987
3 *106:3 *106:10 0.124295
4 *106:10 *106:11 0.24859
5 *106:9 *106:13 0.193074
6 *106:13 *677:Y 1.39998
7 *106:7 *106:11 1.39998
8 *106:5 *106:13 1.39998
9 *106:7 *106:6 1.36713
10 *106:6 *106:5 2.6099999
11 *106:12 *756:B 1.39998
12 *106:12 *106:6 1.39998
13 *106:8 *106:12 0.193074
*END

*D_NET *107 0.00309519

*CONN
*I *678:Y O *C 66.265 30.305 *L 0 *D DLY1X1
*I *763:B I *C 54.955 27.405 *L 0.00167 *D NAND2XL
*I *749:A I *C 52.345 32.915 *L 0.00259 *D NOR3X1
*I *768:AN I *C 55.245 32.915 *L 0.00178 *D NAND2BX1
*I *748:A0 I *C 61.915 32.915 *L 0.00271 *D OAI21X1
*I *758:A I *C 63.075 27.695 *L 0.00162 *D NOR2XL

*CAP
1 *678:Y 3.68014e-05
2 *763:B 3.68014e-05
3 *749:A 3.68014e-05
4 *768:AN 3.68014e-05
5 *748:A0 1.28213e-05
6 *758:A 3.68014e-05
7 *107:6 7.87705e-05
8 *107:7 7.87705e-05
9 *107:8 8.05126e-05
10 *107:9 8.05126e-05
11 *107:10 0.00010129
12 *107:11 9.46829e-05
13 *107:12 0.000124049
14 *107:13 0.000123199
15 *107:14 0.000114542
16 *107:15 0.000114542
17 *107:16 0.00034807
18 *107:17 0.000323251
19 *107:18 3.09909e-05
20 *107:19 0.000102347
21 *107:20 0.000102347
22 *107:21 0.000163399
23 *107:22 0.000163399
24 *107:23 4.19001e-05
25 *107:24 6.47489e-05
26 *107:25 0.00019805
27 *107:26 0.00019805
28 *107:29 7.64814e-05
29 *107:30 6.2019e-05
30 *107:31 3.24462e-05

*RES
1 *107:7 *749:A 1.39999
2 *107:28 *107:31 0.193074
3 *107:31 *678:Y 1.39999
4 *107:9 *768:AN 1.39999
5 *107:7 *107:6 0.248556
6 *748:A0 *107:30 0.193347
7 *107:12 *107:31 1.39999
8 *107:9 *107:8 0.372857
9 *107:22 *107:6 1.39999
10 *107:29 *107:30 0.579995
11 *107:15 *758:A 1.39999
12 *107:13 *107:12 1.11857
13 *107:21 *107:8 1.39999
14 *107:22 *107:21 1.24287
15 *107:10 *107:29 1.39999
16 *107:15 *107:14 0.745714
17 *107:23 *107:13 0.124301
18 *107:25 *107:21 1.39999
19 *107:11 *107:10 0.994271
20 *107:24 *107:14 1.39999
21 *107:24 *107:23 0.248556
22 *107:20 *763:B 1.39999
23 *107:26 *107:25 1.73998
24 *107:16 *107:11 1.39999
25 *107:16 *107:24 0.372857
26 *107:20 *107:19 0.870015
27 *107:17 *107:26 1.39999
28 *107:17 *107:16 2.98285723
29 *107:18 *107:19 1.39999
30 *107:18 *107:17 0.124301
31 *107:27 *107:18 0.0643124
*END

*D_NET *108 0.00452645

*CONN
*I *679:Y O *C 19.575 6.235 *L 0 *D DLY1X1
*I *721:A I *C 35.525 11.745 *L 0.00157 *D NAND2XL
*I *729:A1 I *C 40.745 16.965 *L 0.00274 *D OAI21X1
*I *757:B I *C 37.555 17.545 *L 0.00285 *D NAND3X1
*I *718:A1 I *C 39.295 11.745 *L 0.00271 *D OAI32X1

*CAP
1 *679:Y 3.67987e-05
2 *721:A 3.67987e-05
3 *729:A1 3.67987e-05
4 *757:B 3.67987e-05
5 *718:A1 3.2794e-05
6 *108:5 0.000141159
7 *108:6 0.000142334
8 *108:7 0.00046368
9 *108:8 0.00046368
10 *108:9 0.000321488
11 *108:10 0.000321488
12 *108:11 0.000182529
13 *108:12 0.000204561
14 *108:14 4.00462e-05
15 *108:15 4.00462e-05
16 *108:16 4.10509e-05
17 *108:17 6.42508e-05
18 *108:18 7.33001e-05
19 *108:19 0.000140452
20 *108:20 0.000192908
21 *108:21 0.000140452
22 *108:22 4.01028e-05
23 *108:23 3.24473e-05
24 *108:24 4.56216e-05
25 *108:25 6.11943e-05
26 *108:26 0.000153421
27 *108:27 6.00339e-05
28 *108:28 3.90981e-05
29 *108:7 *23:8 6.686e-05
30 *108:8 *23:9 6.686e-05
31 *108:7 *23:8 0.00015386
32 *108:8 *23:9 0.000153860002
33 *108:7 *198:7 0.00024983
34 *108:8 *198:5 0.000249830013

*RES
1 *108:28 *729:A1 1.40002
2 *108:14 *679:Y 1.40002
3 *108:27 *108:28 0.124324
4 *108:14 *108:15 0.248545
5 *108:21 *757:B 1.40002
6 *108:25 *108:27 0.372869
7 *108:8 *108:15 1.40002
8 *108:19 *108:21 0.497192
9 *108:26 *108:25 1.40002
10 *108:8 *108:7 6.71142864
11 *108:20 *108:19 1.40002
12 *108:20 *108:26 1.24283
13 *108:6 *108:7 1.40002
14 *108:18 *108:20 0.869958
15 *108:6 *108:5 1.24283
16 *108:11 *108:18 1.40002
17 *108:5 *108:16 0.124324
18 *108:12 *721:A 1.40002
19 *108:12 *108:11 1.86424
20 *108:16 *108:17 0.248545
21 *108:17 *108:12 0.372869
22 *108:24 *718:A1 0.386694
23 *108:10 *108:17 1.40002
24 *108:22 *108:24 0.193347
25 *108:10 *108:9 1.49147
26 *108:23 *108:22 1.40002
27 *108:23 *108:9 1.40002
28 *108:13 *108:23 0.19304
*END

*D_NET *109 0.000932211

*CONN
*I *680:Y O *C 15.515 25.085 *L 0 *D DLY1X1
*I *725:A I *C 19.575 27.405 *L 0.00157 *D NAND2XL
*I *723:A I *C 18.125 24.7475 *L 0.00156 *D XNOR2XL

*CAP
1 *680:Y 3.68002e-05
2 *725:A 3.68002e-05
3 *723:A 3.68002e-05
4 *109:3 0.00016063
5 *109:4 0.000138629
6 *109:5 0.000113251
7 *109:6 0.000113251
8 *109:9 3.01701e-05
9 *109:10 3.01701e-05
10 *109:11 3.13515e-05
11 *109:12 3.13515e-05
12 *109:13 7.15096e-05
13 *109:14 5.85999e-05
14 *109:15 4.29008e-05

*RES
1 *109:5 *725:A 1.39999998
2 *109:6 *109:5 0.745715
3 *109:15 *109:6 1.39999998
4 *109:11 *723:A 1.39999998
5 *109:14 *109:15 0.248572
6 *109:11 *109:12 0.124286
7 *109:8 *109:12 0.18284
8 *109:13 *109:14 0.248572
9 *109:3 *109:12 1.39999998
10 *109:3 *109:13 0.372858
11 *109:4 *109:3 1.11857
12 *109:9 *109:4 1.39999998
13 *109:9 *109:10 0.124286
14 *109:10 *680:Y 1.39999998
15 *109:7 *109:10 0.18284
*END

*D_NET *110 0.00929246

*CONN
*I *681:Y O *C 6.525 56.115 *L 0 *D DLY2X1
*I *748:A1 I *C 61.625 32.625 *L 0.00274 *D OAI21X1
*I *755:B I *C 52.925 29.725 *L 0.00284 *D NAND2BX1
*I *739:B1 I *C 56.695 37.845 *L 0.00282 *D OAI32X1
*I *767:A I *C 59.015 38.135 *L 0.00273 *D INVX1

*CAP
1 *681:Y 3.68241e-05
2 *748:A1 3.68241e-05
3 *755:B 3.68241e-05
4 *739:B1 3.68241e-05
5 *767:A 3.68241e-05
6 *110:5 3.71725e-05
7 *110:6 3.71725e-05
8 *110:7 0.000251256
9 *110:8 0.000250077
10 *110:9 0.000340181
11 *110:10 0.000137916
12 *110:11 0.000235202
13 *110:12 0.000154559
14 *110:13 0.00014727
15 *110:14 5.58257e-05
16 *110:15 7.73735e-05
17 *110:16 5.46733e-05
18 *110:17 0.000327155
19 *110:18 0.000327155
20 *110:19 5.88006e-05
21 *110:20 5.94706e-05
22 *110:21 0.00020867
23 *110:22 0.00020867
24 *110:23 0.000418572
25 *110:24 0.000418572
26 *110:25 0.00175638
27 *110:26 0.00175638
28 *110:32 0.000809808
29 *110:33 3.24556e-05
30 *110:34 3.37956e-05
31 *110:35 0.000809808
32 *110:36 3.24556e-05
33 *110:37 3.24556e-05
34 *110:38 3.91021e-05

*RES
1 *110:38 *748:A1 1.40001
2 *110:38 *110:8 0.124159
3 *110:8 *110:7 2.36139
4 *110:37 *767:A 1.40001
5 *110:31 *110:37 0.19296
6 *110:11 *110:7 1.40001
7 *110:6 *739:B1 1.40001
8 *110:30 *110:6 0.06432
9 *110:9 *110:37 1.40001
10 *110:9 *110:11 1.2429
11 *110:6 *110:5 0.124159
12 *110:10 *110:9 0.994324
13 *110:12 *110:5 1.40001
14 *110:12 *110:10 0.124159
15 *110:13 *110:12 1.2429
16 *110:23 *110:13 1.40001
17 *110:24 *110:23 3.47987
18 *110:36 *755:B 1.40001
19 *110:29 *110:36 0.19296
20 *110:14 *110:24 1.40001
21 *110:15 *110:36 1.40001
22 *110:15 *110:14 0.37274
23 *110:16 *110:15 0.37274
24 *110:21 *110:16 0.124159
25 *110:22 *110:21 1.86423
26 *110:22 *110:19 0.124159
27 *110:20 *110:19 0.37274
28 *110:18 *110:20 1.40001
29 *110:18 *110:17 2.98297
30 *110:25 *110:17 1.40001
31 *110:26 *110:25 17.2757149
32 *110:32 *110:26 1.40001
33 *110:32 *110:35 8.07848
34 *110:34 *110:35 1.40001
35 *110:28 *110:34 0.19296
36 *110:33 *110:34 1.40001
37 *110:33 *681:Y 1.40001
38 *110:27 *110:33 0.0300511
*END

*D_NET *111 0.001274

*CONN
*I *527:A0 I *C 28.88 16.8925 *L 0.00161 *D OAI211XL
*I *578:Y O *C 26.245 8.845 *L 0 *D CLKBUFX2
*I *636:A I *C 27.115 11.745 *L 0.0017 *D MXI2XL

*CAP
1 *527:A0 3.68012e-05
2 *578:Y 3.68012e-05
3 *636:A 3.68012e-05
4 *111:3 5.99713e-05
5 *111:4 9.01214e-05
6 *111:5 0.000138448
7 *111:6 0.00027866
8 *111:7 0.000279950039
9 *111:8 0.000119661
10 *111:9 0.000196792

*RES
1 *111:8 *527:A0 1.39999
2 *111:9 *111:8 1.49142861
3 *111:5 *111:9 0.745714
4 *111:6 *636:A 1.39999
5 *111:6 *111:5 0.621436
6 *111:7 *111:6 1.49142861
7 *111:3 *578:Y 1.39999
8 *111:4 *111:7 0.372857
9 *111:4 *111:3 0.248579
*END

*D_NET *112 0.00257351

*CONN
*I *682:Y O *C 40.165 21.895 *L 0 *D DLY1X1
*I *759:B I *C 40.165 14.355 *L 0.00171 *D NOR2XL
*I *719:C0 I *C 35.235 18.995 *L 0.00286 *D OAI211X1
*I *728:B I *C 43.645 19.575 *L 0.00175 *D OR4XL
*I *757:C I *C 37.845 17.255 *L 0.00285 *D NAND3X1
*I *724:B I *C 38.715 13.775 *L 0.00285 *D NAND3X1

*CAP
1 *682:Y 3.68005e-05
2 *759:B 3.68005e-05
3 *719:C0 3.68005e-05
4 *728:B 3.68005e-05
5 *757:C 3.68005e-05
6 *724:B 3.68005e-05
7 *112:6 0.000155399
8 *112:7 0.000128219
9 *112:8 0.000123502
10 *112:9 0.000124671
11 *112:10 2.78917e-05
12 *112:11 2.78917e-05
13 *112:12 0.0001548
14 *112:13 0.00021215
15 *112:14 9.04798e-05
16 *112:15 0.000106028
17 *112:16 9.70901e-05
18 *112:17 7.41287e-05
19 *112:21 3.24497e-05
20 *112:22 2.80698e-05
21 *112:23 4.37281e-05
22 *112:24 4.20707e-05
23 *112:25 0.00013481
24 *112:26 3.71695e-05
25 *112:27 0.00013481
26 *112:28 3.71695e-05
27 *112:29 0.000110411
28 *112:30 0.000110411
29 *112:12 *298:11 5.379e-05
30 *112:13 *298:10 5.379e-05
31 *112:13 *298:11 1.856e-05
32 *112:14 *298:10 1.856e-05
33 *112:15 *298:10 6.161e-05
34 *112:16 *298:6 6.161e-05
35 *112:10 *298:3 1.256e-05
36 *112:11 *298:4 1.256e-05
37 *112:17 *298:9 1.082e-05
38 *112:6 *298:8 1.082e-05
39 *112:17 *298:7 2.34e-06
40 *112:6 *298:5 2.33999544e-06

*RES
1 *112:28 *759:B 1.39999
2 *112:19 *112:28 0.182856
3 *112:26 *112:28 0.124278
4 *112:27 *112:26 1.39999
5 *112:25 *112:27 0.621436
6 *112:9 *724:B 1.39999
7 *112:9 *112:25 1.39999
8 *112:9 *112:8 0.621436
9 *112:10 *728:B 1.39999
10 *112:20 *112:10 0.182856
11 *112:22 *112:8 0.124278
12 *112:11 *112:10 0.124278
13 *112:30 *682:Y 1.39999
14 *112:22 *112:23 0.124278
15 *112:12 *112:11 1.39999
16 *112:29 *112:30 0.869992
17 *112:7 *112:23 0.248579
18 *112:13 *112:12 1.49142861
19 *112:13 *112:29 1.39999
20 *112:6 *757:C 1.39999
21 *112:7 *112:6 0.621436
22 *112:14 *112:13 0.745714
23 *112:6 *112:17 0.745714
24 *112:24 *112:14 0.124278
25 *112:15 *112:17 1.39999
26 *112:15 *112:24 0.248579
27 *112:16 *112:15 1.11857
28 *112:21 *719:C0 1.39999
29 *112:21 *112:16 1.39999
30 *112:18 *112:21 0.193051
*END

*D_NET *113 0.00575646

*CONN
*I *579:Y O *C 5.365 45.675 *L 0 *D DLY2X1
*I *638:A I *C 48.865 40.455 *L 0.0017 *D MXI2XL

*CAP
1 *579:Y 3.67963e-05
2 *638:A 3.67963e-05
3 *113:2 0.00016291
4 *113:3 0.00016291
5 *113:4 0.000342332
6 *113:5 0.00034165
7 *113:6 0.000174554
8 *113:7 0.000174554
9 *113:8 0.000298796
10 *113:9 0.000298796
11 *113:10 0.000224627
12 *113:11 0.000223953
13 *113:12 9.17587e-05
14 *113:13 9.17587e-05
15 *113:14 0.00049073
16 *113:15 0.000245504
17 *113:16 0.00049073
18 *113:17 0.000245504
19 *113:18 9.82359e-05
20 *113:19 9.82359e-05
21 *113:8 *364:9 0.00013315
22 *113:9 *364:10 0.000133150005
23 *113:16 *493:53 0.00032779
24 *113:14 *493:54 0.00032778999
25 *113:4 *78:12 1.85e-05
26 *113:5 *78:13 1.85e-05
27 *113:4 *78:12 0.00010349
28 *113:5 *78:13 0.000103490001
29 *113:8 *374:7 5.013e-05
30 *113:9 *374:8 5.013e-05
31 *113:11 *374:7 4.132e-05
32 *113:10 *374:8 4.132e-05
33 *113:13 *374:7 3.828e-05
34 *113:12 *374:8 3.82800053e-05

*RES
1 *113:18 *638:A 1.39998
2 *113:18 *113:19 0.621448
3 *113:4 *113:19 1.39998
4 *113:5 *113:4 4.10142851
5 *113:17 *113:5 0.12429
6 *113:15 *113:17 2.11286
7 *113:15 *113:16 0.12429
8 *113:14 *113:16 4.10142851
9 *113:13 *113:14 0.12429
10 *113:12 *113:13 0.994316
11 *113:12 *113:8 0.12429
12 *113:9 *113:8 3.47998
13 *113:9 *113:6 0.12429
14 *113:7 *113:6 1.36712
15 *113:11 *113:7 0.12429
16 *113:10 *113:11 2.48573
17 *113:2 *579:Y 1.39998
18 *113:3 *113:10 1.39998
19 *113:3 *113:2 1.36712
*END

*D_NET *114 0.0055246

*CONN
*I *580:Y O *C 61.045 61.335 *L 0 *D DLY2X1
*I *630:A I *C 57.565 11.745 *L 0.0017 *D MXI2XL

*CAP
1 *580:Y 3.68037e-05
2 *630:A 3.68037e-05
3 *114:2 5.82708e-05
4 *114:3 5.82708e-05
5 *114:4 0.000437679
6 *114:5 0.000407621
7 *114:6 0.000533896
8 *114:7 0.000563954
9 *114:8 0.000494027
10 *114:9 0.000494027
11 *114:10 0.000131637
12 *114:11 0.000138514
13 *114:12 0.00071998
14 *114:13 0.00071998
15 *114:16 3.38045e-05
16 *114:17 3.38045e-05
17 *114:12 *184:24 0.00016593
18 *114:13 *184:25 0.00016593
19 *114:10 *184:11 2.087e-05
20 *114:11 *184:12 2.08699931e-05
21 *114:8 *140:230 8.9e-06
22 *114:9 *140:229 8.9e-06
23 *114:4 *140:104 4.82e-05
24 *114:5 *140:105 4.82e-05
25 *114:4 *140:167 1.389e-05
26 *114:5 *140:168 1.389e-05
27 *114:4 *140:129 7.95e-06
28 *114:5 *140:130 7.95e-06
29 *114:4 *140:130 1.002e-05
30 *114:5 *140:224 1.002e-05
31 *114:2 *140:223 3.7e-05
32 *114:3 *140:222 3.69999991e-05

*RES
1 *114:3 *630:A 1.39997
2 *114:3 *114:2 0.497194
3 *114:11 *114:2 1.39997
4 *114:11 *114:10 1.11853
5 *114:8 *580:Y 1.39997
6 *114:5 *114:10 1.39997
7 *114:9 *114:8 4.59863
8 *114:5 *114:4 4.10144
9 *114:15 *114:17 0.193007
10 *114:17 *114:9 1.39997
11 *114:4 *114:7 0.3728
12 *114:12 *114:17 1.39997
13 *114:7 *114:6 3.47998
14 *114:13 *114:12 8.32714272
15 *114:16 *114:6 1.39997
16 *114:16 *114:13 1.39997
17 *114:14 *114:16 0.193007
*END

*D_NET *115 0.00259514

*CONN
*I *581:Y O *C 59.595 45.675 *L 0 *D DLY2X1
*I *641:A I *C 46.255 37.845 *L 0.0017 *D MXI2XL

*CAP
1 *581:Y 3.68014e-05
2 *641:A 3.68014e-05
3 *115:2 0.000231087
4 *115:3 0.000232256
5 *115:4 5.26123e-05
6 *115:5 5.26123e-05
7 *115:6 0.000112913
8 *115:7 0.000112913
9 *115:8 0.000119151
10 *115:9 0.000119826
11 *115:10 8.4607e-05
12 *115:11 8.3438e-05
13 *115:12 0.0006604
14 *115:13 0.000659725

*RES
1 *115:10 *581:Y 1.39998
2 *115:11 *115:10 0.621448
3 *115:2 *115:11 0.124312
4 *115:3 *115:2 1.86429
5 *115:12 *115:3 1.39998
6 *115:13 *115:12 3.72857141
7 *115:6 *115:13 0.124312
8 *115:7 *115:6 1.24284
9 *115:8 *115:7 0.124312
10 *115:9 *115:8 0.621448
11 *115:4 *115:9 1.39998
12 *115:5 *115:4 0.37288
13 *641:A *115:5 1.39998
*END

*D_NET *116 0.0036311

*CONN
*I *582:Y O *C 7.395 22.185 *L 0 *D DLY2X1
*I *631:A I *C 38.135 27.405 *L 0.0017 *D MXI2XL

*CAP
1 *582:Y 3.67992e-05
2 *631:A 3.67992e-05
3 *116:2 0.000184196
4 *116:3 0.000183029
5 *116:4 0.00011536
6 *116:5 0.00011536
7 *116:6 0.000107164
8 *116:7 0.000106477
9 *116:8 3.90713e-05
10 *116:9 5.74022e-05
11 *116:10 5.95197e-05
12 *116:11 5.62003e-05
13 *116:12 0.000194773
14 *116:13 5.86097e-05
15 *116:14 0.000194773
16 *116:15 0.000174353
17 *116:16 0.000174353
18 *116:17 0.000374831
19 *116:18 7.99739e-05
20 *116:19 0.00037506
21 *116:20 7.99739e-05
22 *116:21 5.47123e-05
23 *116:22 5.35391e-05
24 *116:6 *165:16 3.058e-05
25 *116:7 *165:17 3.058e-05
26 *116:6 *165:14 2.476e-05
27 *116:7 *165:15 2.476e-05
28 *116:20 *165:18 3.727e-05
29 *116:18 *165:19 3.727e-05
30 *116:4 *165:16 1.839e-05
31 *116:5 *165:17 1.83900005e-05
32 *116:19 *178:4 7.329e-05
33 *116:17 *178:5 7.329e-05
34 *116:20 *178:4 7.387e-05
35 *116:18 *178:5 7.38700021e-05
36 *116:19 *139:138 2.786e-05
37 *116:17 *139:139 2.786e-05
38 *116:19 *139:139 1.644e-05
39 *116:17 *139:140 1.644e-05
40 *116:19 *139:140 1.738e-05
41 *116:17 *139:141 1.738e-05
42 *116:16 *139:142 1.459e-05
43 *116:15 *139:143 1.459e-05
44 *116:16 *139:144 2.497e-05
45 *116:15 *139:145 2.49699973e-05

*RES
1 *116:2 *631:A 1.40002
2 *116:3 *116:2 1.98856
3 *116:22 *116:3 0.124255
4 *116:21 *116:22 0.372846
5 *116:6 *116:21 1.40002
6 *116:7 *116:6 1.11854
7 *116:4 *116:7 0.124255
8 *116:5 *116:4 0.994282
9 *116:5 *116:20 0.124255
10 *116:18 *116:20 1.49146
11 *116:18 *116:19 0.124255
12 *116:17 *116:19 5.21999979
13 *116:16 *116:17 0.124255
14 *116:15 *116:16 1.98856
15 *116:14 *116:15 0.124255
16 *116:12 *116:14 1.73997
17 *116:12 *116:13 0.124255
18 *116:10 *116:13 0.372846
19 *116:9 *116:10 1.40002
20 *116:9 *116:11 0.372846
21 *116:8 *116:11 0.124255
22 *582:Y *116:8 1.40002
*END

*D_NET *117 0.0021758

*CONN
*I *583:Y O *C 60.755 35.235 *L 0 *D DLY2X1
*I *644:A I *C 43.065 35.235 *L 0.0017 *D MXI2XL

*CAP
1 *583:Y 3.67998e-05
2 *644:A 3.67998e-05
3 *117:2 0.000219401
4 *117:3 0.000218548
5 *117:4 0.000226468
6 *117:5 0.000226468
7 *117:6 0.00029027
8 *117:7 0.00029094918
9 *117:10 3.2449e-05
10 *117:11 4.20696e-05
11 *117:12 8.76999e-05
12 *117:13 4.20696e-05
13 *117:14 0.00022376
14 *117:15 0.000169588
15 *117:16 3.2449e-05

*RES
1 *117:9 *117:16 0.193047
2 *117:16 *583:Y 1.4
3 *117:2 *117:16 1.4
4 *117:3 *117:2 1.74000001
5 *117:15 *117:3 0.124282
6 *117:14 *117:15 1.49144
7 *117:12 *117:14 1.11856
8 *117:12 *117:13 0.124282
9 *117:11 *117:13 0.248564
10 *117:11 *117:4 0.124282
11 *117:5 *117:4 1.74000001
12 *117:5 *117:6 0.124282
13 *117:7 *117:6 1.24285
14 *117:10 *644:A 1.4
15 *117:10 *117:7 1.4
16 *117:8 *117:10 0.193047
*END

*D_NET *118 0.00537276

*CONN
*I *584:Y O *C 6.235 24.795 *L 0 *D DLY2X1
*I *645:A I *C 27.115 32.625 *L 0.0017 *D MXI2XL

*CAP
1 *584:Y 7.87762e-05
2 *645:A 3.68032e-05
3 *118:2 0.000412114
4 *118:3 0.000411431
5 *118:4 3.94227e-05
6 *118:5 3.94227e-05
7 *118:6 0.000565888
8 *118:7 0.000566571484
9 *118:8 9.90754e-05
10 *118:9 6.0379e-05
11 *118:10 6.0379e-05
12 *118:11 0.000137789
13 *118:12 0.000147766
14 *118:13 0.000137789
15 *118:14 0.000147766
16 *118:2 *176:9 0.00040162
17 *118:3 *176:10 0.000401620004
18 *118:2 *179:5 2.919e-05
19 *118:3 *179:6 2.919e-05
20 *118:6 *179:6 0.00039126
21 *118:7 *179:7 0.000391260008
22 *118:13 *139:157 1.359e-05
23 *118:11 *139:158 1.359e-05
24 *118:13 *139:158 1.246e-05
25 *118:11 *139:159 1.246e-05
26 *118:14 *139:167 7.012e-05
27 *118:12 *139:168 7.012e-05
28 *118:10 *139:68 6.281e-05
29 *118:9 *139:69 6.28100035e-05
30 *118:14 *177:6 0.00023464
31 *118:12 *177:7 0.00023464

*RES
1 *118:4 *645:A 1.39998
2 *118:5 *118:4 0.248579
3 *118:2 *118:5 1.39998
4 *118:3 *118:2 4.10142851
5 *118:6 *118:3 0.12429
6 *118:7 *118:6 3.97714
7 *118:14 *118:7 1.39998
8 *118:12 *118:14 2.36144
9 *118:13 *118:12 1.39998
10 *118:11 *118:13 1.6157
11 *118:10 *118:11 1.39998
12 *118:9 *118:10 0.621448
13 *118:8 *118:9 1.39998
14 *118:8 *584:Y 1.15997
*END

*D_NET *119 0.00278725

*CONN
*I *585:Y O *C 62.495 32.625 *L 0 *D DLY2X1
*I *633:A I *C 58.145 14.355 *L 0.0017 *D MXI2XL

*CAP
1 *585:Y 3.67984e-05
2 *633:A 3.67984e-05
3 *119:2 0.000285806
4 *119:3 0.000300243
5 *119:4 0.00053818
6 *119:5 0.000492373
7 *119:6 0.000198577
8 *119:7 0.000271517
9 *119:8 5.29927e-05
10 *119:9 0.000140361
11 *119:10 0.000134522
12 *119:11 0.000134522
13 *119:12 0.000105189
14 *119:13 5.93817e-05

*RES
1 *119:13 *585:Y 1.40002
2 *119:12 *119:13 0.248581
3 *119:4 *119:12 0.497162
4 *119:5 *119:4 2.85857153
5 *119:11 *119:5 1.40002
6 *119:10 *119:11 1.11859
7 *119:2 *119:10 1.40002
8 *119:3 *119:2 1.86429
9 *119:6 *119:3 0.248581
10 *119:7 *119:6 1.61571
11 *119:9 *119:7 0.870011
12 *119:8 *119:9 0.37285
13 *633:A *119:8 1.40002
*END

*D_NET *120 0.00343796

*CONN
*I *586:Y O *C 47.705 43.065 *L 0 *D DLY2X1
*I *635:A I *C 48.285 11.745 *L 0.0017 *D MXI2XL

*CAP
1 *586:Y 3.67982e-05
2 *635:A 3.67982e-05
3 *120:2 0.000198258
4 *120:3 0.00019943
5 *120:4 0.00014092
6 *120:5 0.000109601
7 *120:6 9.91999e-05
8 *120:7 9.91999e-05
9 *120:8 0.000252589
10 *120:9 0.00026825
11 *120:10 0.000222883
12 *120:11 0.000238541
13 *120:12 0.0002812
14 *120:13 0.000280029
15 *120:14 7.9432e-05
16 *120:15 7.9432e-05
17 *120:16 8.92623e-05
18 *120:17 8.92623e-05
19 *120:2 *139:115 0.0001126
20 *120:3 *139:116 0.0001126
21 *120:2 *139:116 8.442e-05
22 *120:3 *139:200 8.442e-05
23 *120:12 *139:201 2.97e-06
24 *120:13 *139:202 2.97e-06
25 *120:12 *139:203 4.21e-06
26 *120:13 *139:204 4.21000894e-06
27 *120:12 5.043e-05
28 *120:13 5.043e-05
29 *120:12 6.381e-05
30 *120:13 6.38099961e-05

*RES
1 *120:3 *635:A 1.39998
2 *120:3 *120:2 2.36142
3 *120:2 *120:7 0.124312
4 *120:7 *120:6 1.24284
5 *120:6 *120:5 0.124312
6 *120:5 *120:4 1.24284
7 *120:17 *586:Y 1.39998
8 *120:11 *120:4 0.37288
9 *120:16 *120:17 0.621448
10 *120:11 *120:10 1.9886
11 *120:14 *120:16 1.39998
12 *120:9 *120:10 0.248568
13 *120:15 *120:14 0.248568
14 *120:9 *120:8 2.23717
15 *120:12 *120:15 1.39998
16 *120:13 *120:8 0.124312
17 *120:13 *120:12 3.72857141
*END

*D_NET *121 0.00178034

*CONN
*I *587:Y O *C 5.365 43.065 *L 0 *D DLY2X1
*I *637:A I *C 15.805 35.235 *L 0.0017 *D MXI2XL

*CAP
1 *587:Y 2.58227e-05
2 *637:A 3.68008e-05
3 *121:2 9.9721e-05
4 *121:3 9.9721e-05
5 *121:4 0.0002063
6 *121:5 0.0002063
7 *121:6 0.000124969
8 *121:7 0.000125649
9 *121:8 4.61182e-05
10 *121:9 0.00031362
11 *121:10 9.05088e-05
12 *121:11 0.00031362
13 *121:12 9.11884e-05

*RES
1 *121:3 *637:A 1.40002
2 *121:3 *121:2 0.994274
3 *121:12 *121:2 1.40002
4 *121:10 *121:12 0.745695
5 *121:10 *121:11 0.12429
6 *121:9 *121:11 2.73428583
7 *121:6 *121:9 0.12429
8 *121:8 *587:Y 0.386678
9 *121:7 *121:6 1.24285
10 *121:4 *121:8 1.40002
11 *121:5 *121:7 1.40002
12 *121:5 *121:4 2.36142
*END

*D_NET *122 0.00194136

*CONN
*I *588:Y O *C 29.145 19.575 *L 0 *D DLY2X1
*I *643:A I *C 25.085 32.625 *L 0.0017 *D MXI2XL

*CAP
1 *588:Y 3.6802e-05
2 *643:A 3.6802e-05
3 *122:2 5.06479e-05
4 *122:3 0.000170164
5 *122:4 0.000203071
6 *122:5 0.000203071
7 *122:6 0.000180482
8 *122:7 6.09712e-05
9 *122:8 5.7821e-05
10 *122:9 5.8699e-05
11 *122:10 0.00034873
12 *122:11 0.00034873
13 *122:14 3.24492e-05
14 *122:15 3.38008e-05
15 *122:16 5.91194e-05
16 *122:17 6.00027e-05

*RES
1 *122:2 *643:A 1.39999
2 *122:3 *122:2 0.372865
3 *122:6 *122:3 0.869985
4 *122:7 *122:6 0.372865
5 *122:5 *122:7 1.39999
6 *122:5 *122:4 1.74002
7 *122:17 *122:4 1.39999
8 *122:16 *122:17 0.372865
9 *122:10 *122:16 0.124305
10 *122:11 *122:10 3.23142862
11 *122:11 *122:8 0.124305
12 *122:9 *122:8 0.372865
13 *122:15 *122:9 1.39999
14 *122:13 *122:15 0.19304
15 *122:14 *122:15 1.39999
16 *122:14 *588:Y 1.39999
17 *122:12 *122:14 0.19304
*END

*D_NET *123 0.00191008

*CONN
*I *589:Y O *C 43.065 45.675 *L 0 *D DLY2X1
*I *634:A I *C 34.365 35.235 *L 0.0017 *D MXI2XL

*CAP
1 *589:Y 3.68022e-05
2 *634:A 3.68022e-05
3 *123:2 0.00042298
4 *123:3 0.00042298
5 *123:4 0.000111149
6 *123:5 0.000111149
7 *123:6 0.000384112
8 *123:7 0.000384112

*RES
1 *123:7 *589:Y 1.39998
2 *123:6 *123:7 3.23144
3 *123:2 *123:6 1.39998
4 *123:3 *123:2 3.72857141
5 *123:4 *123:3 1.39998
6 *123:5 *123:4 0.994271
7 *634:A *123:5 1.39998
*END

*D_NET *124 0.000974349

*CONN
*I *590:Y O *C 35.525 30.015 *L 0 *D DLY2X1
*I *632:A I *C 38.715 35.235 *L 0.0017 *D MXI2XL

*CAP
1 *590:Y 3.68011e-05
2 *632:A 1.28205e-05
3 *124:2 0.00022839
4 *124:3 0.00022956
5 *124:5 3.90989e-05
6 *124:6 0.000164249
7 *124:7 2.95396e-05
8 *124:8 0.000164249
9 *124:9 4.01008e-05
10 *124:10 2.95396e-05

*RES
1 *124:3 *590:Y 1.40001
2 *124:3 *124:2 2.1128571
3 *124:2 *124:5 0.124284
4 *124:6 *124:5 1.40001
5 *124:6 *124:8 1.36715
6 *632:A *124:9 0.193341
7 *124:7 *124:8 1.40001
8 *124:10 *124:9 1.40001
9 *124:7 *124:10 0.124284
10 *124:4 *124:10 0.182863
*END

*D_NET *125 0.0020025

*CONN
*I *591:Y O *C 5.365 37.845 *L 0 *D DLY2X1
*I *646:A I *C 15.805 30.015 *L 0.0017 *D MXI2XL

*CAP
1 *591:Y 3.67952e-05
2 *646:A 3.67952e-05
3 *125:2 0.000210699
4 *125:3 0.000210699
5 *125:4 0.000205959
6 *125:5 0.00054779
7 *125:6 0.000205959
8 *125:7 0.00054779

*RES
1 *125:3 *646:A 1.39999
2 *125:3 *125:2 1.49141
3 *125:7 *125:2 1.39999
4 *125:5 *125:7 4.4742856
5 *125:6 *591:Y 1.39999
6 *125:4 *125:5 1.39999
7 *125:4 *125:6 1.86431
*END

*D_NET *126 0.000407069

*CONN
*I *592:Y O *C 59.595 43.065 *L 0 *D DLY2X1
*I *640:A I *C 59.885 40.455 *L 0.0017 *D MXI2XL

*CAP
1 *592:Y 3.67988e-05
2 *640:A 3.67988e-05
3 *126:2 3.90987e-05
4 *126:3 0.00014777
5 *126:4 0.0001466

*RES
1 *126:3 *640:A 1.39999998
2 *126:3 *126:4 1.11857
3 *126:2 *126:4 0.124286
4 *592:Y *126:2 1.39999998
*END

*D_NET *127 0.0022195

*CONN
*I *683:Y O *C 45.095 21.895 *L 0 *D DLY1X1
*I *730:A I *C 41.035 22.475 *L 0.00259 *D NOR3X1
*I *759:A I *C 39.875 14.065 *L 0.00162 *D NOR2XL
*I *729:A0 I *C 40.455 17.255 *L 0.00271 *D OAI21X1
*I *762:B I *C 45.965 19.575 *L 0.00167 *D NAND2XL
*I *720:A1 I *C 46.545 16.965 *L 0.00271 *D OAI32X1

*CAP
1 *683:Y 3.6802e-05
2 *730:A 3.6802e-05
3 *759:A 3.6802e-05
4 *729:A0 2.58191e-05
5 *762:B 3.6802e-05
6 *720:A1 3.6802e-05
7 *127:6 0.00012935
8 *127:7 0.000120029
9 *127:8 3.9989e-05
10 *127:9 0.00015583
11 *127:10 0.00019411
12 *127:11 0.00012058
13 *127:12 0.000102341
14 *127:13 9.51283e-05
15 *127:14 8.06385e-05
16 *127:15 8.75902e-05
17 *127:16 9.53415e-05
18 *127:17 6.34593e-05
19 *127:18 9.36088e-05
20 *127:19 0.000193609
21 *127:20 0.000193609
22 *127:22 4.61202e-05
23 *127:8 *308:11 2.512e-05
24 *127:9 *308:10 2.512e-05
25 *127:9 *308:13 4.916e-05
26 *127:10 *308:12 4.916e-05
27 *127:9 *308:11 2.489e-05
28 *127:10 *308:10 2.48899999e-05

*RES
1 *127:22 *729:A0 0.386678
2 *127:7 *759:A 1.4
3 *127:14 *720:A1 1.4
4 *127:6 *127:22 1.4
5 *127:7 *127:6 1.24285
6 *127:14 *127:13 0.621436
7 *127:6 *127:15 0.248564
8 *127:12 *127:13 0.248564
9 *127:15 *127:10 0.497154
10 *127:8 *730:A 1.4
11 *127:11 *762:B 1.4
12 *127:12 *127:11 0.621436
13 *127:10 *127:9 1.74000001
14 *127:9 *127:8 0.372846
15 *127:11 *127:16 0.372846
16 *127:20 *127:9 1.4
17 *127:18 *127:16 0.372846
18 *127:20 *127:19 1.74000001
19 *127:18 *127:17 0.497154
20 *127:17 *127:19 1.4
21 *127:17 *683:Y 1.4
22 *127:21 *127:17 0.193047
*END

*D_NET *128 0.00045597

*CONN
*I *593:Y O *C 62.205 16.965 *L 0 *D DLY2X1
*I *642:A I *C 59.885 16.965 *L 0.0017 *D MXI2XL

*CAP
1 *593:Y 3.68001e-05
2 *642:A 2.90005e-05
3 *128:2 9.058e-05
4 *128:3 9.058e-05
5 *128:5 4.93003e-05
6 *128:6 6.36292e-05
7 *128:7 6.36292e-05
8 *128:8 3.24504e-05

*RES
1 *642:A *128:5 0.386658
2 *128:6 *128:5 1.39999998
3 *128:6 *128:7 0.248572
4 *128:3 *128:7 1.39999998
5 *128:3 *128:2 0.745715
6 *128:8 *128:2 1.39999998
7 *128:8 *593:Y 1.39999998
8 *128:4 *128:8 0.193051
*END

*D_NET *129 0.0065772

*CONN
*I *831:Y O *C 64.235 6.525 *L 0 *D DLY3X1
*I *952:AN I *C 55.245 58.725 *L 0.00173 *D NOR4BBXL
*I *928:A I *C 58.725 58.725 *L 0.00157 *D NAND2XL
*I *924:A0 I *C 57.855 61.045 *L 0.00271 *D OAI21X1

*CAP
1 *831:Y 3.68056e-05
2 *952:AN 3.68056e-05
3 *928:A 3.68056e-05
4 *924:A0 3.68056e-05
5 *129:4 4.09288e-05
6 *129:5 4.21266e-05
7 *129:6 0.000215273
8 *129:7 0.000199638
9 *129:8 0.000518103
10 *129:9 0.000519301
11 *129:10 0.000272379
12 *129:11 0.000271181
13 *129:12 0.000262645
14 *129:13 0.000391698
15 *129:14 0.00016287
16 *129:15 7.8037e-05
17 *129:16 6.36123e-05
18 *129:20 3.24555e-05
19 *129:21 0.000825447
20 *129:22 0.00082633
21 *129:23 3.38047e-05
22 *129:24 0.000481499
23 *129:25 0.000480617
24 *129:10 *185:21 9.752e-05
25 *129:11 *185:20 9.752e-05
26 *129:10 *185:8 9.155e-05
27 *129:11 *185:9 9.155e-05
28 *129:8 *185:19 3.746e-05
29 *129:9 *185:18 3.746e-05
30 *129:8 *185:17 4.94e-06
31 *129:9 *185:16 4.94e-06
32 *129:8 *185:15 2.588e-05
33 *129:9 *185:14 2.58800026e-05
34 *129:8 *188:6 9.867e-05
35 *129:9 *188:7 9.86699966e-05

*RES
1 *129:9 *831:Y 1.39997
2 *129:9 *129:8 5.84143
3 *129:8 *129:11 0.124267
4 *129:11 *129:10 3.47998
5 *129:16 *924:A0 1.39997
6 *129:19 *129:23 0.193007
7 *129:23 *129:10 1.39997
8 *129:16 *129:15 0.248534
9 *129:24 *129:23 1.39997
10 *129:15 *129:6 0.248534
11 *129:24 *129:25 4.7229
12 *129:7 *129:6 0.994261
13 *129:21 *129:25 0.124267
14 *129:7 *129:4 0.124267
15 *129:21 *129:22 8.32714272
16 *129:5 *928:A 1.39997
17 *129:18 *129:5 0.0299867
18 *129:5 *129:4 0.3728
19 *129:12 *129:22 1.39997
20 *129:13 *129:5 1.39997
21 *129:13 *129:12 2.36145
22 *129:14 *129:13 1.49146
23 *129:20 *952:AN 1.39997
24 *129:20 *129:14 1.39997
25 *129:17 *129:20 0.193007
*END

*D_NET *130 0.00703943

*CONN
*I *832:Y O *C 15.225 37.845 *L 0 *D DLY3X1
*I *953:A0 I *C 47.995 61.045 *L 0.00157 *D OA21XL
*I *958:A I *C 51.185 58.725 *L 0.00155 *D NAND3XL
*I *840:A I *C 49.155 55.825 *L 0.00162 *D NOR2XL
*I *955:A I *C 47.125 50.895 *L 0.00157 *D NAND2XL

*CAP
1 *832:Y 3.68001e-05
2 *953:A0 1.28186e-05
3 *958:A 3.68001e-05
4 *840:A 3.68001e-05
5 *955:A 3.68001e-05
6 *130:5 0.000456959
7 *130:6 0.00045628
8 *130:7 0.000174493
9 *130:8 0.000158317
10 *130:9 0.000405201
11 *130:10 0.000405201
12 *130:11 0.000498234
13 *130:12 0.000609629102
14 *130:13 0.00035628
15 *130:14 0.00035628
16 *130:15 0.00018561
17 *130:16 6.4149e-05
18 *130:17 0.000251759
19 *130:18 0.000217703
20 *130:19 0.000143172
21 *130:20 0.000143172
22 *130:21 0.000172047
23 *130:22 0.000172047
24 *130:23 8.77676e-05
25 *130:24 0.000136968
26 *130:25 8.04653e-05
27 *130:27 5.84652e-05
28 *130:28 5.96373e-05
29 *130:29 3.90978e-05
30 *130:30 6.03908e-05
31 *130:31 4.35443e-05
32 *130:32 7.42141e-05
33 *130:33 3.60745e-05
34 *130:34 3.49024e-05
35 *130:35 4.01024e-05
36 *130:36 3.24466e-05
37 *130:37 7.98234e-05
38 *130:38 7.98234e-05
39 *130:9 *41:17 0.00010739
40 *130:10 *41:18 0.00010739
41 *130:31 *41:17 3.751e-05
42 *130:30 *41:18 3.751e-05
43 *130:7 *41:17 4.98e-05
44 *130:8 *41:18 4.98000044e-05
45 *130:17 *137:22 2.512e-05
46 *130:18 *137:21 2.512e-05
47 *130:17 *137:21 0.00013476
48 *130:18 *137:20 0.000134759996

*RES
1 *130:29 *832:Y 1.40003
2 *130:27 *130:29 0.124255
3 *130:27 *130:28 0.248587
4 *130:8 *130:28 1.40003
5 *130:8 *130:7 1.6157
6 *130:7 *130:10 0.248587
7 *130:10 *130:9 4.97142839
8 *130:30 *130:9 0.248587
9 *130:30 *130:31 0.372842
10 *130:31 *130:6 0.124255
11 *130:6 *130:5 4.22574
12 *130:32 *130:5 1.40003
13 *130:32 *130:15 0.621429
14 *130:15 *130:12 0.870015
15 *130:37 *958:A 1.40003
16 *130:12 *130:11 3.85283
17 *130:37 *130:38 0.372842
18 *130:14 *130:11 1.40003
19 *130:21 *130:38 1.40003
20 *130:35 *953:A0 0.193362
21 *130:14 *130:13 2.60997
22 *130:22 *130:21 1.49144
23 *130:23 *130:35 1.40003
24 *130:33 *955:A 1.40003
25 *130:33 *130:13 1.40003
26 *130:24 *130:22 1.40003
27 *130:24 *130:23 0.745684
28 *130:33 *130:34 0.248587
29 *130:25 *130:24 0.745684
30 *130:34 *130:18 0.124255
31 *130:16 *130:25 0.124255
32 *130:18 *130:17 1.86429
33 *130:17 *130:16 0.870015
34 *130:20 *130:17 1.40003
35 *130:20 *130:19 0.745684
36 *130:36 *840:A 1.40003
37 *130:36 *130:19 1.40003
38 *130:26 *130:36 0.193059
*END

*D_NET *131 0.00572079

*CONN
*I *833:Y O *C 56.405 6.525 *L 0 *D DLY3X1
*I *952:BN I *C 52.925 58.725 *L 0.00157 *D NOR4BBXL
*I *946:A I *C 52.055 61.335 *L 0.00157 *D NAND2XL
*I *943:A0 I *C 53.505 61.045 *L 0.00157 *D OA21XL

*CAP
1 *833:Y 3.67856e-05
2 *952:BN 3.67856e-05
3 *946:A 3.67856e-05
4 *943:A0 3.67856e-05
5 *131:4 8.02718e-05
6 *131:5 5.02136e-05
7 *131:6 8.76181e-05
8 *131:7 0.000117676
9 *131:8 0.00011843
10 *131:9 0.00011843
11 *131:10 0.00176264
12 *131:11 0.00176353
13 *131:15 9.49645e-05
14 *131:16 4.83568e-05
15 *131:17 3.37986e-05
16 *131:18 4.92448e-05
17 *131:19 0.000166356
18 *131:20 0.000166356
19 *131:21 3.24531e-05
20 *131:22 3.24531e-05
21 *131:23 9.49645e-05
22 *131:20 *383:9 2.496e-05
23 *131:19 *383:10 2.496e-05
24 *131:10 *383:9 0.00012605
25 *131:11 *383:10 0.00012605
26 *131:10 *383:11 0.00020264
27 *131:11 *383:12 0.00020264
28 *131:20 *383:13 7.11e-06
29 *131:19 *383:14 7.11e-06
30 *131:18 *383:15 7.44e-06
31 *131:16 *383:16 7.44e-06
32 *131:23 *383:5 9.73e-06
33 *131:15 *383:6 9.7299953e-06

*RES
1 *131:14 *131:22 0.096755
2 *131:22 *833:Y 1.40001
3 *131:23 *131:22 1.40001
4 *131:21 *943:A0 1.40001
5 *131:13 *131:21 0.193201
6 *131:15 *131:23 1.49151
7 *131:8 *131:21 1.40001
8 *131:11 *131:15 1.40001
9 *131:9 *131:8 0.621334
10 *131:11 *131:10 20.2585716
11 *131:6 *946:A 1.40001
12 *131:6 *131:9 1.40001
13 *131:10 *131:19 0.124267
14 *131:7 *131:6 0.745601
15 *131:19 *131:20 2.11284
16 *131:7 *131:4 0.3728
17 *131:16 *131:20 0.124267
18 *131:5 *952:BN 1.40001
19 *131:5 *131:4 0.3728
20 *131:16 *131:18 0.3728
21 *131:17 *131:5 1.40001
22 *131:17 *131:18 1.40001
23 *131:12 *131:17 0.193201
*END

*D_NET *132 0.00580696

*CONN
*I *834:Y O *C 59.305 9.135 *L 0 *D DLY3X1
*I *948:A0 I *C 58.45 56.13 *L 0.00157 *D OA21X1
*I *950:A I *C 56.985 56.115 *L 0.00157 *D NAND2XL
*I *962:B I *C 54.375 53.505 *L 0.00167 *D NAND2XL

*CAP
1 *834:Y 3.67923e-05
2 *948:A0 1.28148e-05
3 *950:A 3.67923e-05
4 *962:B 3.67923e-05
5 *132:4 0.000133168
6 *132:5 0.000133168
7 *132:6 5.8228e-05
8 *132:7 6.54932e-05
9 *132:8 5.54532e-05
10 *132:9 0.000107666
11 *132:10 8.51497e-05
12 *132:11 2.92305e-05
13 *132:12 2.92305e-05
14 *132:13 3.49707e-05
15 *132:14 3.49707e-05
16 *132:15 0.00138813
17 *132:16 0.00138813
18 *132:20 4.00966e-05
19 *132:21 3.24501e-05
20 *132:22 3.38057e-05
21 *132:15 *184:24 0.00031317
22 *132:16 *184:25 0.00031317
23 *132:15 *184:26 1.355e-05
24 *132:16 *184:27 1.3550015e-05
25 *132:15 *382:20 0.00019828
26 *132:16 *382:21 0.00019828
27 *132:15 *382:16 7.472e-05
28 *132:16 *382:17 7.472e-05
29 *132:15 *382:18 0.00021059
30 *132:16 *382:19 0.000210589984
31 *132:6 *105:13 1.824e-05
32 *132:7 *105:12 1.824e-05
33 *132:8 *105:13 4.927e-05
34 *132:9 *105:12 4.927e-05
35 *132:9 *105:13 0.0001118
36 *132:10 *105:12 0.0001118
37 *132:4 *105:8 2.759e-05
38 *132:5 *105:9 2.75900034e-05

*RES
1 *132:5 *962:B 1.39991
2 *132:18 *132:21 0.192968
3 *132:21 *834:Y 1.39991
4 *132:13 *950:A 1.39991
5 *132:5 *132:4 0.869852
6 *132:19 *132:22 0.192968
7 *132:22 *132:21 1.39991
8 *132:14 *132:13 0.2487
9 *132:10 *132:4 1.39991
10 *132:16 *132:22 1.39991
11 *132:9 *132:14 1.39991
12 *132:10 *132:9 1.11855
13 *132:16 *132:15 19.6371422
14 *132:20 *948:A0 0.193267
15 *132:9 *132:8 0.497101
16 *132:6 *132:15 1.39991
17 *132:11 *132:20 1.39991
18 *132:8 *132:7 0.12435
19 *132:7 *132:6 0.497101
20 *132:12 *132:11 0.12435
21 *132:12 *132:7 1.39991
22 *132:17 *132:12 0.0644224
*END

*D_NET *133 0.00136958

*CONN
*I *604:Q O *C 11.165 17.545 *L 0 *D SDFFQX1
*I *594:A I *C 9.715 30.305 *L 0.00172 *D DLY3X1

*CAP
1 *604:Q 1.31411e-05
2 *594:A 3.67989e-05
3 *133:2 5.71713e-05
4 *133:3 5.83398e-05
5 *133:4 0.000171451
6 *133:5 0.000155849
7 *133:6 0.000229029
8 *133:7 0.00024466
9 *133:8 4.04201e-05
10 *133:9 0.00018196
11 *133:10 0.000180761

*RES
1 *133:8 *604:Q 0.193347
2 *133:9 *133:8 1.4
3 *133:9 *133:10 1.49143
4 *133:6 *133:10 0.124286
5 *133:6 *133:7 1.98857141
6 *133:4 *133:7 0.248571
7 *133:3 *594:A 1.4
8 *133:4 *133:5 1.74
9 *133:2 *133:3 0.372857
10 *133:2 *133:5 0.124286
*END

*D_NET *134 0.00349361

*CONN
*I *508:Y O *C 25.665 19.575 *L 0 *D DLY3X1
*I *521:A I *C 23.925 14.355 *L 0.0017 *D MXI2XL
*I *541:B0 I *C 14.935 9.135 *L 0.00173 *D OAI2BB1XL
*I *551:B I *C 23.055 9.135 *L 0.00167 *D NAND2XL
*I *512:B I *C 20.155 8.845 *L 0.00284 *D NAND2BX1
*I *564:A I *C 18.125 14.065 *L 0.00273 *D CLKINVX1

*CAP
1 *508:Y 3.67988e-05
2 *521:A 2.56582e-05
3 *541:B0 3.67988e-05
4 *551:B 3.67988e-05
5 *512:B 3.67988e-05
6 *564:A 3.67988e-05
7 *134:6 3.90269e-05
8 *134:7 3.90269e-05
9 *134:8 0.000133641
10 *134:9 0.000133641
11 *134:10 0.000380260039
12 *134:11 0.000354428
13 *134:12 9.69e-05
14 *134:13 0.000145948
15 *134:14 9.39814e-05
16 *134:15 6.31997e-05
17 *134:16 0.00010272
18 *134:17 7.24197e-05
19 *134:18 4.40228e-05
20 *134:19 0.000149168
21 *134:20 0.000102279
22 *134:25 0.000165171
23 *134:26 3.3799e-05
24 *134:27 0.000165171
25 *134:28 3.2447e-05
26 *134:29 3.2447e-05
27 *134:30 0.000103758
28 *134:31 0.000103758
29 *134:32 4.59608e-05
30 *134:33 5.70898e-05
31 *134:34 8.59625e-05
32 *134:15 *181:17 2.432e-05
33 *134:16 *181:15 2.432e-05
34 *134:16 *181:14 1.201e-05
35 *134:17 *181:12 1.201e-05
36 *134:18 *181:14 1.459e-05
37 *134:12 *181:12 1.459e-05
38 *134:12 *181:14 3.405e-05
39 *134:13 *181:12 3.405e-05
40 *134:13 *181:13 1.624e-05
41 *134:14 *181:5 1.624e-05
42 *134:13 *181:14 1.882e-05
43 *134:14 *181:12 1.88200005e-05
44 *134:13 *249:6 0.00013383
45 *134:14 *249:7 0.000133829994

*RES
1 *134:34 *508:Y 1.39999
2 *134:19 *134:34 0.497158
3 *134:20 *134:19 0.869992
4 *134:31 *134:20 0.12429
5 *134:30 *134:31 0.994282
6 *521:A *134:32 0.38666
7 *134:30 *134:33 0.12429
8 *134:10 *134:32 1.39999
9 *134:10 *134:33 0.372869
10 *134:11 *134:10 2.2371428
11 *134:8 *564:A 1.39999
12 *134:29 *551:B 1.39999
13 *134:24 *134:29 0.193074
14 *134:15 *134:11 1.39999
15 *134:9 *134:8 0.745703
16 *134:16 *134:29 1.39999
17 *134:16 *134:15 0.621413
18 *134:26 *134:9 1.39999
19 *134:22 *134:26 0.193074
20 *134:17 *134:16 0.869992
21 *134:27 *134:26 1.39999
22 *134:28 *512:B 1.39999
23 *134:23 *134:28 0.193074
24 *134:18 *134:17 0.12429
25 *134:25 *134:27 1.49144
26 *134:12 *134:28 1.39999
27 *134:12 *134:18 0.372869
28 *134:13 *134:25 1.39999
29 *134:13 *134:12 0.869992
30 *134:6 *541:B0 1.39999
31 *134:14 *134:13 1.36715
32 *134:7 *134:6 0.12429
33 *134:7 *134:14 1.39999
34 *134:21 *134:7 0.0643124
*END

*D_NET *135 0.00356272

*CONN
*I *835:Y O *C 46.545 24.795 *L 0 *D DLY3X1
*I *964:B I *C 45.965 50.895 *L 0.00172 *D AND2X1
*I *961:A0N I *C 48.285 50.895 *L 0.00172 *D AOI2BB1X1
*I *839:A0 I *C 44.805 48.575 *L 0.00155 *D AO21X1

*CAP
1 *835:Y 3.67984e-05
2 *964:B 3.67984e-05
3 *961:A0N 3.67984e-05
4 *839:A0 1.28158e-05
5 *135:4 3.23798e-05
6 *135:5 3.23798e-05
7 *135:6 4.34905e-05
8 *135:7 4.34905e-05
9 *135:8 9.55543e-05
10 *135:9 9.89083e-05
11 *135:10 3.71667e-05
12 *135:11 0.000169704
13 *135:12 0.000151412
14 *135:13 4.4307e-05
15 *135:14 0.000112725
16 *135:15 0.000112725
17 *135:16 0.0005246
18 *135:17 0.000523727
19 *135:18 0.000352663
20 *135:19 0.000352663
21 *135:21 4.00965e-05
22 *135:22 4.33144e-05
23 *135:23 7.34608e-05
24 *135:24 0.000140726
25 *135:25 0.000139853
26 *135:8 *38:10 8.753e-05
27 *135:9 *38:11 8.753e-05
28 *135:9 *38:10 4.955e-05
29 *135:10 *38:11 4.95499952e-05

*RES
1 *135:22 *964:B 1.39997
2 *839:A0 *135:21 0.193298
3 *135:22 *135:23 0.248581
4 *135:13 *135:21 1.39997
5 *135:11 *135:23 0.372832
6 *135:14 *961:A0N 1.39997
7 *135:13 *135:12 0.248581
8 *135:12 *135:11 0.994324
9 *135:15 *135:14 0.869994
10 *135:10 *135:12 1.39997
11 *135:8 *135:15 1.39997
12 *135:10 *135:9 0.497162
13 *135:9 *135:8 0.869994
14 *135:16 *135:9 1.39997
15 *135:17 *135:16 5.09571409
16 *135:18 *135:17 0.124252
17 *135:19 *135:18 3.47998
18 *135:7 *835:Y 1.39997
19 *135:19 *135:25 0.124252
20 *135:7 *135:6 0.248581
21 *135:24 *135:25 1.24283
22 *135:4 *135:6 1.39997
23 *135:5 *135:24 1.39997
24 *135:5 *135:4 0.124252
25 *135:20 *135:5 0.0643029
*END

*D_NET *136 0.00500362

*CONN
*I *836:Y O *C 42.775 6.815 *L 0 *D DLY4X1
*I *961:A1N I *C 47.705 50.605 *L 0.00169 *D AOI2BB1X1
*I *964:A I *C 45.385 50.895 *L 0.00178 *D AND2X1
*I *900:A I *C 46.255 48.575 *L 0.00162 *D NOR2XL

*CAP
1 *836:Y 3.68065e-05
2 *961:A1N 3.68065e-05
3 *964:A 3.68065e-05
4 *900:A 3.68065e-05
5 *136:4 6.62713e-05
6 *136:5 6.62713e-05
7 *136:6 0.000129939
8 *136:7 0.000129939
9 *136:8 7.37892e-05
10 *136:9 0.000135264
11 *136:10 8.99215e-05
12 *136:11 0.000127883
13 *136:12 0.00128216
14 *136:13 0.00128304
15 *136:14 3.61604e-05
16 *136:15 3.61604e-05
17 *136:16 0.000247857
18 *136:17 0.000247857
19 *136:18 0.000210894
20 *136:19 0.000211755
21 *136:20 6.58602e-05
22 *136:21 0.000174322
23 *136:12 *169:16 0.00011492
24 *136:13 *169:15 0.00011492
25 *136:14 *169:4 5.62e-06
26 *136:15 *169 5.61999307e-06

*RES
1 *136:8 *961:A1N 1.39998
2 *136:20 *900:A 1.39998
3 *136:9 *136:8 0.497116
4 *136:10 *964:A 1.39998
5 *136:20 *136:21 0.497116
6 *136:21 *136:9 0.621448
7 *136:11 *136:10 0.497116
8 *136:11 *136:21 0.372785
9 *136:6 *136:11 1.39998
10 *136:7 *136:6 0.745779
11 *136:19 *136:7 1.39998
12 *136:18 *136:19 1.98867
13 *136:17 *136:18 0.124331
14 *136:16 *136:17 2.48579
15 *136:16 *136:12 0.124331
16 *136:13 *136:12 13.6714287
17 *136:4 *136:13 1.39998
18 *136:5 *136:4 0.372785
19 *136:14 *136:5 1.39998
20 *136:15 *136:14 0.248662
21 *836:Y *136:15 1.39998
*END

*D_NET *137 0.00421367

*CONN
*I *837:Y O *C 50.895 48.285 *L 0 *D DLY3X1
*I *960:C I *C 32.335 53.795 *L 0.00164 *D NAND4XL
*I *942:A0 I *C 43.935 55.825 *L 0.00157 *D OA21XL
*I *945:A I *C 47.125 56.115 *L 0.00157 *D NAND2XL

*CAP
1 *837:Y 3.67979e-05
2 *960:C 3.67979e-05
3 *942:A0 1.28223e-05
4 *945:A 3.67979e-05
5 *137:4 0.000188439
6 *137:5 0.000188439
7 *137:6 0.000211643
8 *137:7 0.000211643
9 *137:8 0.000177301
10 *137:9 0.00017798
11 *137:10 0.000255569121
12 *137:11 0.000254891
13 *137:12 0.000178011
14 *137:13 0.000178011
15 *137:15 3.24497e-05
16 *137:16 0.00011124
17 *137:17 0.00016648
18 *137:18 4.00971e-05
19 *137:19 8.77011e-05
20 *137:20 9.77001e-05
21 *137:21 9.66978e-05
22 *137:22 3.14592e-05
23 *137:8 *86:15 6.882e-05
24 *137:9 *86:14 6.882e-05
25 *137:8 *86:13 9.607e-05
26 *137:9 *86:7 9.60699987e-05
27 *137:8 *36:12 0.00022037
28 *137:9 *36:13 0.00022037
29 *137:8 *36:10 4.609e-05
30 *137:9 *36:11 4.60900016e-05
31 *137:22 *130:17 2.512e-05
32 *137:21 *130:18 2.512e-05
33 *137:21 *130:17 0.00013476
34 *137:20 *130:18 0.000134759996
35 *137:22 *9:4 3.746e-05
36 *137:21 *9:5 3.746e-05
37 *137:21 *9:4 7.366e-05
38 *137:20 *9:5 7.36600051e-05

*RES
1 *137:5 *837:Y 1.4
2 *137:5 *137:4 1.61569
3 *137:6 *137:4 1.4
4 *137:7 *137:6 1.61569
5 *137:20 *137:7 1.4
6 *137:22 *945:A 1.4
7 *137:20 *137:21 1.36713
8 *137:21 *137:22 0.372872
9 *137:18 *942:A0 0.193339
10 *137:12 *137:21 1.4
11 *137:19 *137:18 1.4
12 *137:13 *137:12 1.49144
13 *137:17 *137:19 0.372872
14 *137:17 *137:13 1.4
15 *137:16 *137:17 0.497128
16 *137:10 *137:16 1.4
17 *137:11 *137:10 1.36713
18 *137:8 *137:11 0.124308
19 *137:9 *137:8 3.48000002
20 *137:15 *960:C 1.4
21 *137:15 *137:9 1.4
22 *137:14 *137:15 0.193074
*END

*D_NET *138 0.00835653

*CONN
*I *498:A I *C 67.135 40.455 *L 0.00172 *D CLKBUFX2
*I *509:Y O *C 36.975 6.525 *L 0 *D DLY3X1
*I *554:A I *C 19.865 11.745 *L 0.00157 *D NAND2XL
*I *526:A0 I *C 21.58 11.6725 *L 0.00161 *D OAI211XL
*I *551:A I *C 22.475 9.135 *L 0.00157 *D NAND2XL
*I *512:AN I *C 21.025 8.845 *L 0.00178 *D NAND2BX1

*CAP
1 *498:A 3.68047e-05
2 *509:Y 3.68047e-05
3 *554:A 5.25186e-05
4 *526:A0 2.56604e-05
5 *551:A 3.84842e-05
6 *512:AN 3.68047e-05
7 *138:6 0.000117549
8 *138:7 0.000139798
9 *138:8 0.000188085
10 *138:9 0.000188085
11 *138:10 0.000194439
12 *138:11 0.000194439
13 *138:12 0.000140501
14 *138:13 0.000140696
15 *138:14 0.000202211
16 *138:15 0.000202211
17 *138:16 0.000106417
18 *138:17 0.000106417
19 *138:18 0.000667289
20 *138:19 0.000529405
21 *138:20 0.000171018
22 *138:21 0.000113461
23 *138:22 0.000113461
24 *138:23 0.000393642
25 *138:24 0.000393642
26 *138:25 5.44845e-05
27 *138:26 5.33258e-05
28 *138:27 0.000114919
29 *138:28 0.000114919
30 *138:29 8.22801e-05
31 *138:30 8.34518e-05
32 *138:31 0.0008532
33 *138:32 0.0008532
34 *138:34 8.19806e-05
35 *138:35 4.00464e-05
36 *138:36 5.87808e-05
37 *138:37 6.22829e-05
38 *138:38 0.000158194
39 *138:39 0.000158194
40 *138:40 4.10619e-05
41 *138:41 3.37973e-05
42 *138:8 *23:4 4.152e-05
43 *138:9 *23:5 4.152e-05
44 *138:10 *23:4 1.914e-05
45 *138:11 *23:5 1.914e-05
46 *138:12 *23:6 2.437e-05
47 *138:13 *23:7 2.437e-05
48 *138:14 *23:6 4.312e-05
49 *138:15 *23:7 4.312e-05
50 *138:16 *23:6 5.487e-05
51 *138:17 *23:7 5.487e-05
52 *138:18 *23:8 0.00023016
53 *138:19 *23:9 0.00023016
54 *138:10 *23:10 2.919e-05
55 *138:11 *23:11 2.919e-05
56 *138:20 *23:12 4.129e-05
57 *138:18 *23:13 4.129e-05
58 *138:18 *23:12 7.62e-06
59 *138:19 *23:13 7.61999262e-06

*RES
1 *554:A *138:34 0.773364
2 *138:34 *526:A0 0.386618
3 *138:6 *138:34 1.39997
4 *138:36 *551:A 0.580056
5 *138:7 *512:AN 1.39997
6 *138:7 *138:6 1.11859
7 *138:37 *138:36 1.39997
8 *138:7 *138:37 0.248632
9 *138:35 *138:37 0.248632
10 *138:22 *509:Y 1.39997
11 *138:19 *138:35 1.39997
12 *138:22 *138:21 0.869954
13 *138:19 *138:18 6.5872
14 *138:18 *138:21 1.39997
15 *138:18 *138:20 1.98854
16 *138:20 *138:15 0.124316
17 *138:15 *138:14 2.23717
18 *138:17 *138:14 0.124316
19 *138:17 *138:16 1.49141
20 *138:16 *138:13 0.124316
21 *138:13 *138:12 1.36709
22 *138:11 *138:12 0.124316
23 *138:25 *498:A 1.39997
24 *138:11 *138:10 2.11286
25 *138:26 *138:25 0.372819
26 *138:10 *138:9 0.124316
27 *138:23 *138:26 0.124316
28 *138:9 *138:8 2.11286
29 *138:24 *138:23 3.35576
30 *138:38 *138:8 0.124316
31 *138:24 *138:27 0.124316
32 *138:38 *138:39 1.49141
33 *138:28 *138:27 0.994271
34 *138:39 *138:40 0.124316
35 *138:29 *138:28 0.124316
36 *138:32 *138:40 1.39997
37 *138:30 *138:29 0.372819
38 *138:32 *138:31 8.45142841
39 *138:41 *138:30 1.39997
40 *138:41 *138:31 1.39997
41 *138:33 *138:41 0.193051
*END

*D_NET *139 0.0476811

*CONN
*P *139 I *C 35.525 70.47 *L 0
*I *876:CK I *C 45.385 63.655 *L 0.0016 *D DFFQX1
*I *875:CK I *C 46.835 63.655 *L 0.0016 *D DFFQX1
*I *874:CK I *C 14.645 40.745 *L 0.0016 *D DFFQX1
*I *873:CK I *C 19.285 37.555 *L 0.0016 *D DFFQX1
*I *872:CK I *C 23.635 63.655 *L 0.0016 *D DFFQX1
*I *871:CK I *C 17.835 61.625 *L 0.0016 *D DFFQX1
*I *870:CK I *C 10.585 63.655 *L 0.0016 *D DFFQX1
*I *869:CK I *C 12.035 63.655 *L 0.0016 *D DFFQX1
*I *868:CK I *C 50.315 51.185 *L 0.0016 *D DFFQX1
*I *867:CK I *C 15.515 53.215 *L 0.0016 *D DFFQX1
*I *866:CK I *C 16.095 51.185 *L 0.0016 *D DFFQX1
*I *865:CK I *C 16.095 45.965 *L 0.0016 *D DFFQX1
*I *864:CK I *C 16.385 47.995 *L 0.0016 *D DFFQX1
*I *863:CK I *C 37.265 47.995 *L 0.0016 *D DFFQX1
*I *862:CK I *C 30.015 37.555 *L 0.00153 *D DFFQXL
*I *861:CK I *C 29.145 45.965 *L 0.0016 *D DFFQX1
*I *860:CK I *C 34.945 42.775 *L 0.00153 *D DFFQXL
*I *859:CK I *C 34.075 40.455 *L 0.00158 *D DFFHQX1
*I *858:CK I *C 21.315 58.435 *L 0.0016 *D DFFQX1
*I *857:CK I *C 57.275 53.215 *L 0.0016 *D DFFQX1
*I *856:CK I *C 32.915 51.185 *L 0.0016 *D DFFQX1
*I *855:CK I *C 43.645 51.185 *L 0.0016 *D DFFQX1
*I *854:CK I *C 59.305 63.655 *L 0.0016 *D DFFQX1
*I *853:CK I *C 52.925 63.945 *L 0.00158 *D DFFHQX1
*I *852:CK I *C 62.205 58.435 *L 0.0016 *D DFFQX1
*I *851:CK I *C 32.915 63.655 *L 0.0016 *D DFFQX1
*I *838:CK I *C 56.405 51.185 *L 0.0016 *D DFFQX1
*I *700:CK I *C 65.685 37.555 *L 0.0016 *D DFFQX1
*I *699:CK I *C 65.395 21.895 *L 0.00153 *D DFFQXL
*I *698:CK I *C 56.985 24.795 *L 0.00158 *D DFFHQX1
*I *697:CK I *C 62.785 30.305 *L 0.0016 *D DFFQX1
*I *696:CK I *C 45.675 42.775 *L 0.00153 *D DFFQXL
*I *695:CK I *C 53.795 43.065 *L 0.00158 *D DFFHQX1
*I *694:CK I *C 36.395 9.425 *L 0.0016 *D DFFQX1
*I *693:CK I *C 32.625 14.645 *L 0.0016 *D DFFQX1
*I *692:CK I *C 47.705 9.135 *L 0.00158 *D DFFHQX1
*I *691:CK I *C 47.995 14.645 *L 0.00153 *D DFFQXL
*I *690:CK I *C 53.215 16.675 *L 0.0016 *D DFFQX1
*I *689:CK I *C 43.065 27.115 *L 0.0016 *D DFFQX1
*I *688:CK I *C 32.045 21.895 *L 0.0016 *D DFFQX1
*I *687:CK I *C 28.855 25.085 *L 0.0016 *D DFFQX1
*I *686:CK I *C 19.575 21.895 *L 0.00153 *D DFFQXL
*I *685:CK I *C 6.235 27.405 *L 0.00158 *D DFFHQX1
*I *684:CK I *C 13.485 21.895 *L 0.00153 *D DFFQXL
*I *612:CK I *C 7.685 32.335 *L 0.0016 *D DFFQX1
*I *611:CK I *C 65.685 19.865 *L 0.0016 *D DFFQX1
*I *610:CK I *C 45.095 32.335 *L 0.0016 *D DFFQX1
*I *609:CK I *C 34.655 37.555 *L 0.0016 *D DFFQX1
*I *608:CK I *C 19.575 35.525 *L 0.0016 *D DFFQX1
*I *607:CK I *C 45.385 37.555 *L 0.0016 *D DFFQX1
*I *606:CK I *C 65.395 40.745 *L 0.0016 *D DFFQX1
*I *605:CK I *C 30.305 9.425 *L 0.0016 *D DFFQX1
*I *604:CK I *C 11.745 16.675 *L 0.00157 *D SDFFQX1
*I *603:CK I *C 7.975 35.525 *L 0.0016 *D DFFQX1
*I *602:CK I *C 49.445 9.425 *L 0.0016 *D DFFQX1
*I *601:CK I *C 59.595 11.455 *L 0.0016 *D DFFQX1
*I *600:CK I *C 61.045 14.645 *L 0.0016 *D DFFQX1
*I *599:CK I *C 39.005 32.335 *L 0.0016 *D DFFQX1
*I *598:CK I *C 46.835 40.745 *L 0.0016 *D DFFQX1
*I *597:CK I *C 32.915 32.335 *L 0.0016 *D DFFQX1
*I *596:CK I *C 26.825 35.525 *L 0.0016 *D DFFQX1
*I *595:CK I *C 26.825 6.525 *L 0.00158 *D DFFHQX1
*I *516:CK I *C 21.895 16.675 *L 0.0016 *D DFFQX1
*I *515:CK I *C 20.735 6.235 *L 0.0016 *D DFFQX1
*I *514:CK I *C 12.615 6.235 *L 0.0016 *D DFFQX1
*I *513:CK I *C 12.615 14.645 *L 0.0016 *D DFFQX1
*I *510:CK I *C 5.945 19.865 *L 0.0016 *D DFFQX1

*CAP
1 *139 0.000172146
2 *876:CK 3.68035e-05
3 *875:CK 3.68035e-05
4 *874:CK 3.68035e-05
5 *873:CK 3.68035e-05
6 *872:CK 3.68035e-05
7 *871:CK 3.68035e-05
8 *870:CK 3.68035e-05
9 *869:CK 3.68035e-05
10 *868:CK 3.68035e-05
11 *867:CK 3.68035e-05
12 *866:CK 3.68035e-05
13 *865:CK 3.68035e-05
14 *864:CK 3.68035e-05
15 *863:CK 3.68035e-05
16 *862:CK 3.68035e-05
17 *861:CK 3.68035e-05
18 *860:CK 3.68035e-05
19 *859:CK 3.68035e-05
20 *858:CK 3.68035e-05
21 *857:CK 3.68035e-05
22 *856:CK 3.68035e-05
23 *855:CK 3.68035e-05
24 *854:CK 3.68035e-05
25 *853:CK 3.68035e-05
26 *852:CK 3.68035e-05
27 *851:CK 3.68035e-05
28 *838:CK 3.68035e-05
29 *700:CK 3.68035e-05
30 *699:CK 3.68035e-05
31 *698:CK 3.68035e-05
32 *697:CK 3.68035e-05
33 *696:CK 3.68035e-05
34 *695:CK 3.68035e-05
35 *694:CK 3.68035e-05
36 *693:CK 3.68035e-05
37 *692:CK 3.68035e-05
38 *691:CK 3.68035e-05
39 *690:CK 3.68035e-05
40 *689:CK 3.68035e-05
41 *688:CK 3.68035e-05
42 *687:CK 3.68035e-05
43 *686:CK 3.68035e-05
44 *685:CK 3.68035e-05
45 *684:CK 3.68035e-05
46 *612:CK 3.68035e-05
47 *611:CK 3.68035e-05
48 *610:CK 3.68035e-05
49 *609:CK 3.68035e-05
50 *608:CK 3.68035e-05
51 *607:CK 3.68035e-05
52 *606:CK 3.68035e-05
53 *605:CK 3.68035e-05
54 *604:CK 3.68035e-05
55 *603:CK 3.68035e-05
56 *602:CK 3.68035e-05
57 *601:CK 3.68035e-05
58 *600:CK 3.68035e-05
59 *599:CK 3.68035e-05
60 *598:CK 3.68035e-05
61 *597:CK 3.68035e-05
62 *596:CK 3.68035e-05
63 *595:CK 3.68035e-05
64 *516:CK 3.68035e-05
65 *515:CK 3.68035e-05
66 *514:CK 3.68035e-05
67 *513:CK 3.68035e-05
68 *510:CK 3.68035e-05
69 *139:68 0.000157698
70 *139:69 0.000156499
71 *139:70 0.000137978
72 *139:71 0.000200507
73 *139:72 0.000107993
74 *139:73 0.000119686
75 *139:74 3.10461e-05
76 *139:75 3.10461e-05
77 *139:76 5.10928e-05
78 *139:77 4.99136e-05
79 *139:78 5.83069e-05
80 *139:79 0.000241878
81 *139:80 0.000139227
82 *139:81 0.000139227
83 *139:82 0.000553509
84 *139:83 0.00055231
85 *139:84 7.54897e-05
86 *139:85 7.54897e-05
87 *139:86 0.000290296
88 *139:87 0.000290296
89 *139:88 0.000103434
90 *139:89 4.20951e-05
91 *139:90 9.734e-05
92 *139:91 0.000394671
93 *139:92 0.000405681
94 *139:93 0.000444387
95 *139:94 0.000372831
96 *139:95 0.000166418
97 *139:96 0.000262084
98 *139:97 0.000346016
99 *139:98 0.000239708
100 *139:99 0.000140119
101 *139:100 0.000127831
102 *139:101 0.000127831
103 *139:102 0.000436509
104 *139:103 0.000409347
105 *139:104 3.01642e-05
106 *139:105 3.01642e-05
107 *139:106 0.000169827
108 *139:107 0.000171006
109 *139:108 0.000649411953
110 *139:109 0.000649411953
111 *139:110 8.96701e-05
112 *139:111 8.96701e-05
113 *139:112 0.000190429
114 *139:113 0.000190429
115 *139:114 0.000216045
116 *139:115 0.000122183
117 *139:116 0.000172493
118 *139:117 0.000177477
119 *139:118 0.000312691
120 *139:119 0.000254206
121 *139:120 0.000133351
122 *139:121 4.72876e-05
123 *139:122 4.65147e-05
124 *139:123 4.71984e-05
125 *139:124 0.000133925
126 *139:125 0.000134114
127 *139:126 6.86424e-05
128 *139:127 5.94563e-05
129 *139:128 5.57601e-05
130 *139:129 5.45611e-05
131 *139:130 0.000177002
132 *139:131 0.000215599
133 *139:132 6.32417e-05
134 *139:133 0.000297797
135 *139:134 0.000297797
136 *139:135 0.000231602
137 *139:136 0.000231602
138 *139:137 7.90571e-05
139 *139:138 0.0002461
140 *139:139 0.000228481
141 *139:140 0.000118378
142 *139:141 8.98385e-05
143 *139:142 4.40175e-05
144 *139:143 4.49292e-05
145 *139:144 0.000135372
146 *139:145 0.000135372
147 *139:146 4.44833e-05
148 *139:147 0.000166775
149 *139:148 0.000153576
150 *139:149 5.71276e-05
151 *139:150 8.41406e-05
152 *139:151 5.82969e-05
153 *139:152 0.000162742
154 *139:153 0.000162742
155 *139:154 5.13505e-05
156 *139:155 0.000105376
157 *139:156 9.4714e-05
158 *139:157 7.7977e-05
159 *139:158 0.000127098
160 *139:159 8.29317e-05
161 *139:160 0.000121132
162 *139:161 0.000258496
163 *139:162 0.000171165
164 *139:163 0.000370651
165 *139:164 0.000310531
166 *139:165 0.000113899
167 *139:166 0.000112729
168 *139:167 0.000212636
169 *139:168 0.00017821
170 *139:169 0.000107666
171 *139:170 9.98668e-05
172 *139:171 6.57191e-05
173 *139:172 0.000194006
174 *139:173 0.000100105
175 *139:174 0.000381323
176 *139:175 0.000480437
177 *139:176 0.000173018
178 *139:177 0.000229145
179 *139:178 4.16393e-05
180 *139:179 7.2616e-05
181 *139:180 7.2616e-05
182 *139:181 0.000505944
183 *139:182 0.000344064
184 *139:183 0.000137136
185 *139:184 0.000226182
186 *139:185 4.62174e-05
187 *139:186 0.000147462
188 *139:187 0.000133707
189 *139:188 0.000165933
190 *139:189 5.91789e-05
191 *139:190 0.000124026
192 *139:191 9.02349e-05
193 *139:192 8.43884e-05
194 *139:193 8.32191e-05
195 *139:194 0.000311026
196 *139:195 0.000311026
197 *139:196 0.000138196
198 *139:197 0.000160502
199 *139:198 5.60673e-05
200 *139:199 4.16393e-05
201 *139:200 8.16138e-05
202 *139:201 2.6904e-05
203 *139:202 5.82177e-05
204 *139:203 7.06143e-05
205 *139:204 8.51019e-05
206 *139:205 0.000294378
207 *139:206 0.000377696
208 *139:207 0.000198545
209 *139:208 0.000198545
210 *139:209 0.000116386
211 *139:210 0.000116386
212 *139:211 0.000293982
213 *139:212 0.000138622
214 *139:213 0.000361168
215 *139:214 0.000443663
216 *139:215 5.40458e-05
217 *139:216 4.17681e-05
218 *139:217 4.05988e-05
219 *139:218 0.000115385
220 *139:219 5.40458e-05
221 *139:220 0.000177249
222 *139:221 7.66987e-05
223 *139:222 0.00013229
224 *139:223 8.68756e-05
225 *139:224 0.000209405
226 *139:225 0.000198227
227 *139:226 0.000276561
228 *139:227 0.000104822
229 *139:228 0.000161087
230 *139:229 0.000150058
231 *139:230 0.00011379
232 *139:231 0.000169361
233 *139:232 4.33239e-05
234 *139:233 4.45031e-05
235 *139:234 0.000189279
236 *139:235 0.000220028
237 *139:236 0.000123719
238 *139:237 0.000150999
239 *139:238 0.000185157
240 *139:239 8.99872e-05
241 *139:240 5.58295e-05
242 *139:241 0.000187912
243 *139:242 6.49462e-05
244 *139:243 7.94436e-05
245 *139:244 9.36537e-05
246 *139:245 0.000156489
247 *139:246 0.000156489
248 *139:247 6.70866e-05
249 *139:248 6.77604e-05
250 *139:249 6.0913e-05
251 *139:250 9.10574e-05
252 *139:251 7.59059e-05
253 *139:252 0.000101056
254 *139:253 8.3011e-05
255 *139:254 0.000340467
256 *139:255 0.000296945
257 *139:256 7.7323e-05
258 *139:257 0.000286629
259 *139:258 0.000348979
260 *139:259 0.000184344
261 *139:260 0.000154448
262 *139:261 0.000154448
263 *139:262 0.000121995
264 *139:263 0.000299819
265 *139:264 0.000299819
266 *139:265 4.93091e-05
267 *139:266 0.000185603
268 *139:267 7.09909e-05
269 *139:268 7.21602e-05
270 *139:269 7.09612e-05
271 *139:270 7.21305e-05
272 *139:271 4.04402e-05
273 *139:272 4.11537e-05
274 *139:273 8.75693e-05
275 *139:274 0.000108934
276 *139:275 4.39878e-05
277 *139:276 8.00679e-05
278 *139:277 8.00679e-05
279 *139:278 0.000105238
280 *139:279 0.000105238
281 *139:280 0.000141348
282 *139:281 0.000111292
283 *139:282 0.000189448
284 *139:283 0.000313345
285 *139:284 0.000313345
286 *139:294 3.24433e-05
287 *139:295 4.16393e-05
288 *139:296 0.000102968
289 *139:297 0.000379698
290 *139:298 7.42114e-05
291 *139:299 3.91025e-05
292 *139:300 3.24433e-05
293 *139:301 4.64255e-05
294 *139:302 3.97862e-05
295 *139:303 5.46998e-05
296 *139:304 0.000379698
297 *139:305 7.50141e-05
298 *139:306 7.50141e-05
299 *139:307 5.249e-05
300 *139:308 5.1291e-05
301 *139:309 4.00439e-05
302 *139:310 0.000104762
303 *139:311 9.71715e-05
304 *139:312 7.04161e-05
305 *139:313 3.97862e-05
306 *139:314 5.42836e-05
307 *139:315 9.71715e-05
308 *139:316 9.71715e-05
309 *139:317 5.47593e-05
310 *139:318 3.90727e-05
311 *139:319 0.000187773
312 *139:320 5.47593e-05
313 *139:321 0.000166299
314 *139:322 9.71715e-05
315 *139:323 7.04161e-05
316 *139:324 0.000101591
317 *139:325 3.24433e-05
318 *139:326 2.83111e-05
319 *139:327 2.83111e-05
320 *139:328 7.03369e-05
321 *139:329 3.24433e-05
322 *139:330 3.38009e-05
323 *139:262 *30:21 2.673e-05
324 *139:257 *30:20 2.673e-05
325 *139:257 *30:21 5.835e-05
326 *139:258 *30:20 5.835e-05
327 *139:258 *30:21 5.925e-05
328 *139:259 *30:20 5.925e-05
329 *139:265 *30:17 1.256e-05
330 *139:252 *30:16 1.256e-05
331 *139:252 *30:17 7.196e-05
332 *139:253 *30:16 7.19599994e-05
333 *139:257 *368:15 5.699e-05
334 *139:258 *368:16 5.699e-05
335 *139:258 *368:20 3.995e-05
336 *139:259 *368:21 3.995e-05
337 *139:258 *368:17 1.581e-05
338 *139:259 *368:18 1.581e-05
339 *139:260 *368:7 5.71e-06
340 *139:261 *368:8 5.71e-06
341 *139:256 *368:7 3.606e-05
342 *139:254 *368:8 3.606e-05
343 *139:254 *368:31 2.283e-05
344 *139:255 *368:27 2.28300063e-05
345 *139:256 *6:6 0.00013419
346 *139:254 *6:7 0.00013419
347 *139:254 *6:6 0.00014708
348 *139:255 *6:7 0.000147079983
349 *139:234 *79:4 3.045e-05
350 *139:235 *79:5 3.045e-05
351 *139:235 *79:4 1.073e-05
352 *139:236 *79:5 1.073e-05
353 *139:237 *79:14 3.382e-05
354 *139:238 *79:12 3.382e-05
355 *139:237 *79:10 0.0001466
356 *139:238 *79:11 0.0001466
357 *139:238 *79:10 9.954e-05
358 *139:239 *79:11 9.954e-05
359 *139:239 *79:10 7.333e-05
360 *139:240 *79:11 7.333e-05
361 *139:224 *79:8 1.559e-05
362 *139:211 *79:9 1.55900181e-05
363 *139:237 *403:13 9.027e-05
364 *139:238 *403:14 9.027e-05
365 *139:238 *403:13 3.828e-05
366 *139:239 *403:14 3.828e-05
367 *139:239 *403:13 2.738e-05
368 *139:240 *403:14 2.738e-05
369 *139:249 *403:18 2.381e-05
370 *139:250 *403:19 2.381e-05
371 *139:250 *403:11 4.883e-05
372 *139:251 *403:12 4.883e-05
373 *139:82 *403:25 2.97e-06
374 *139:83 *403:18 2.97e-06
375 *139:82 *403:18 5.93e-06
376 *139:83 *403:19 5.93000868e-06
377 *139:184 *41:17 2.372e-05
378 *139:266 *41:18 2.372e-05
379 *139:266 *41:17 2.215e-05
380 *139:174 *41:18 2.215e-05
381 *139:174 *41:17 6.574e-05
382 *139:175 *41:18 6.574e-05
383 *139:175 *41:17 1.678e-05
384 *139:181 *41:18 1.678e-05
385 *139:196 *41:4 3.572e-05
386 *139:197 *41:5 3.57199956e-05
387 *139:157 *118:13 1.359e-05
388 *139:158 *118:11 1.359e-05
389 *139:158 *118:13 1.246e-05
390 *139:159 *118:11 1.246e-05
391 *139:167 *118:14 7.012e-05
392 *139:168 *118:12 7.012e-05
393 *139:68 *118:10 6.281e-05
394 *139:69 *118:9 6.28100035e-05
395 *139:137 *178:4 9.91e-05
396 *139:138 *178:5 9.91e-05
397 *139:138 *178:4 0.00017083
398 *139:139 *178:5 0.00017083
399 *139:147 *178:26 2.714e-05
400 *139:148 *178:25 2.714e-05
401 *139:147 *178:24 2.97e-06
402 *139:148 *178:23 2.97e-06
403 *139:267 *178:14 4.94e-06
404 *139:268 *178:13 4.94000958e-06
405 *139:138 *116:19 2.786e-05
406 *139:139 *116:17 2.786e-05
407 *139:139 *116:19 1.644e-05
408 *139:140 *116:17 1.644e-05
409 *139:140 *116:19 1.738e-05
410 *139:141 *116:17 1.738e-05
411 *139:142 *116:16 1.459e-05
412 *139:143 *116:15 1.459e-05
413 *139:144 *116:16 2.497e-05
414 *139:145 *116:15 2.49699973e-05
415 *139:137 *25:16 4.972e-05
416 *139:138 *25:17 4.972e-05
417 *139:138 *25:16 2.342e-05
418 *139:139 *25:17 2.342e-05
419 *139:139 *25:22 2.855e-05
420 *139:140 *25:20 2.855e-05
421 *139:140 *25:22 2.113e-05
422 *139:141 *25:20 2.113e-05
423 *139:138 *25:23 3.932e-05
424 *139:139 *25:21 3.93200013e-05
425 *139:117 *199:18 2.662e-05
426 *139:118 *199:16 2.662e-05
427 *139:117 *199:20 1.364e-05
428 *139:118 *199:17 1.364e-05
429 *139:118 *199:15 5.514e-05
430 *139:119 *199:13 5.514e-05
431 *139:119 *199:15 3.341e-05
432 *139:120 *199:13 3.341e-05
433 *139:120 *199:14 7.62e-06
434 *139:121 *199:12 7.62e-06
435 *139:122 *199:4 1.228e-05
436 *139:123 *199:5 1.228e-05
437 *139:124 *199:4 2.513e-05
438 *139:125 *199:5 2.513e-05
439 *139:126 *199:21 2.178e-05
440 *139:127 *199:19 2.178e-05
441 *139:128 *199:21 6.235e-05
442 *139:129 *199:19 6.235e-05
443 *139:130 *199:8 3.717e-05
444 *139:131 *199:9 3.717e-05
445 *139:131 *199:8 1.888e-05
446 *139:132 *199:9 1.88799874e-05
447 *139:99 *198:7 5.395e-05
448 *139:97 *198:5 5.395e-05
449 *139:97 *198:7 9.864e-05
450 *139:98 *198:5 9.86400033e-05
451 *139:115 *120:2 0.0001126
452 *139:116 *120:3 0.0001126
453 *139:116 *120:2 8.442e-05
454 *139:200 *120:3 8.442e-05
455 *139:201 *120:12 2.97e-06
456 *139:202 *120:13 2.97e-06
457 *139:203 *120:12 4.21e-06
458 *139:204 *120:13 4.21000894e-06
459 *139:190 *388:2 5.624e-05
460 *139:172 *388:3 5.624e-05
461 *139:172 *388:2 3.603e-05
462 *139:173 *388:3 3.603e-05
463 *139:221 *388:2 8.747e-05
464 *139:222 *388:3 8.747e-05
465 *139:222 *388:2 9.844e-05
466 *139:223 *388:3 9.844e-05
467 *139:207 *388:5 1.793e-05
468 *139:208 *388:4 1.79300007e-05
469 *139:90 *476:10 1.671e-05
470 *139:91 *476:8 1.671e-05
471 *139:91 *476:10 6.287e-05
472 *139:92 *476:8 6.287e-05
473 *139:92 *476:10 1.909e-05
474 *139:93 *476:8 1.909e-05
475 *139:93 *476:10 7.614e-05
476 *139:94 *476:8 7.614e-05

*RES
1 *139:192 *606:CK 1.39997
2 *139:193 *139:192 0.745674
3 *139:193 *139:191 0.124326
4 *139:163 *700:CK 1.39997
5 *139:163 *139:191 0.621442
6 *139:164 *139:163 3.35567
7 *139:278 *697:CK 1.39997
8 *139:164 *139:269 0.124326
9 *139:279 *139:278 0.745674
10 *139:270 *139:269 0.497116
11 *139:156 *139:279 1.39997
12 *139:154 *139:270 1.39997
13 *139:156 *139:155 1.11856
14 *139:155 *139:154 0.248558
15 *139:283 *139:155 1.39997
16 *139:284 *139:283 2.85856
17 *139:330 *139:284 1.39997
18 *139:293 *139:330 0.19305
19 *139:128 *699:CK 1.39997
20 *139:128 *139:330 1.39997
21 *139:295 *870:CK 1.39997
22 *139:89 *601:CK 1.39997
23 *139:129 *139:128 0.621442
24 *139:295 *139:296 0.248558
25 *139:89 *139:88 0.248558
26 *139:129 *139:271 0.124326
27 *139:296 *139:227 0.621442
28 *139:88 *139:282 0.621442
29 *139:126 *611:CK 1.39997
30 *139:126 *139:271 0.248558
31 *139:228 *869:CK 1.39997
32 *139:228 *139:227 0.248558
33 *139:96 *600:CK 1.39997
34 *139:282 *139:96 1.11856
35 *139:127 *139:126 0.87
36 *139:229 *139:228 0.87
37 *139:86 *698:CK 1.39997
38 *139:96 *139:95 1.36712
39 *139:117 *139:127 1.39997
40 *139:307 *858:CK 1.39997
41 *139:300 *871:CK 1.39997
42 *139:286 *139:300 0.19305
43 *139:255 *139:229 1.39997
44 *139:85 *690:CK 1.39997
45 *139:87 *139:86 2.98288
46 *139:118 *139:95 1.39997
47 *139:118 *139:117 1.98856
48 *139:307 *139:308 0.372884
49 *139:254 *139:300 1.39997
50 *139:255 *139:254 2.48567
51 *139:85 *139:84 0.497116
52 *139:119 *139:87 1.39997
53 *139:119 *139:118 1.74
54 *139:253 *139:308 0.124326
55 *139:254 *139:256 1.36712
56 *139:104 *602:CK 1.39997
57 *139:289 *139:104 0.182855
58 *139:120 *139:84 1.39997
59 *139:120 *139:119 1.61567
60 *139:253 *139:252 0.994326
61 *139:252 *139:256 1.39997
62 *139:264 *852:CK 1.39997
63 *139:105 *139:104 0.124326
64 *139:121 *139:120 0.372884
65 *139:252 *139:265 0.621442
66 *139:264 *139:263 2.23712
67 *139:276 *139:105 1.39997
68 *139:124 *139:121 0.124326
69 *139:261 *139:265 1.39997
70 *139:327 *853:CK 1.39997
71 *139:291 *139:327 0.182855
72 *139:329 *854:CK 1.39997
73 *139:292 *139:329 0.19305
74 *139:262 *139:263 1.39997
75 *139:277 *139:276 0.745674
76 *139:125 *139:124 1.49144
77 *139:215 *695:CK 1.39997
78 *139:328 *857:CK 1.39997
79 *139:261 *139:260 1.11856
80 *139:326 *139:327 0.124326
81 *139:257 *139:329 1.39997
82 *139:257 *139:262 1.24288
83 *139:107 *692:CK 1.39997
84 *139:107 *139:277 1.39997
85 *139:288 *139:107 0.19305
86 *139:125 *139:122 0.124326
87 *139:215 *139:212 0.372884
88 *139:280 *139:328 0.372884
89 *139:309 *139:260 1.39997
90 *139:258 *139:326 1.39997
91 *139:258 *139:257 2.73433
92 *139:107 *139:106 1.49144
93 *139:123 *139:122 0.372884
94 *139:212 *139:211 0.87
95 *139:281 *838:CK 1.39997
96 *139:281 *139:280 0.87
97 *139:310 *872:CK 1.39997
98 *139:309 *139:310 0.248558
99 *139:259 *139:258 2.61
100 *139:106 *139:200 0.124326
101 *139:115 *139:123 1.39997
102 *139:211 *139:224 2.23712
103 *139:244 *139:281 1.39997
104 *139:310 *139:311 0.87
105 *139:315 *851:CK 1.39997
106 *139:324 *875:CK 1.39997
107 *139:324 *139:259 1.39997
108 *139:116 *691:CK 1.39997
109 *139:200 *139:116 0.87
110 *139:116 *139:115 1.36712
111 *139:323 *598:CK 1.39997
112 *139:325 *868:CK 1.39997
113 *139:290 *139:325 0.19305
114 *139:234 *139:224 1.39997
115 *139:234 *139:244 1.11856
116 *139:94 *139:311 1.39997
117 *139:315 *139:316 0.87
118 *139:319 *139 1.86433
119 *139:321 *876:CK 1.39997
120 *139:321 *139:324 0.621442
121 *139:108 *139:116 1.39997
122 *139:202 *139:323 0.372884
123 *139:235 *139:325 1.39997
124 *139:235 *139:234 1.49144
125 *139:94 *139:93 6.18666649
126 *139:93 *139:316 1.39997
127 *139:318 *139:319 0.124326
128 *139:321 *139:322 0.87
129 *139:114 *694:CK 1.39997
130 *139:109 *139:108 4.97144
131 *139:202 *139:201 0.124326
132 *139:203 *696:CK 1.39997
133 *139:236 *139:235 1.11856
134 *139:93 *139:92 1.54667
135 *139:92 *139:318 1.39997
136 *139:90 *139:322 1.39997
137 *139:114 *139:79 2.23712
138 *139:79 *139:109 1.39997
139 *139:204 *139:201 0.124326
140 *139:204 *139:203 0.745674
141 *139:236 *139:245 0.124326
142 *139:92 *139:91 5.41333
143 *139:91 *139:90 1.35333
144 *139:79 *139:78 0.372884
145 *139:190 *139:204 0.124326
146 *139:246 *139:245 1.36712
147 *139:82 *139:91 1.39997
148 *139:112 *139:78 1.39997
149 *139:172 *607:CK 1.39997
150 *139:172 *139:190 1.49144
151 *139:247 *139:246 0.124326
152 *139:83 *139:82 5.59288
153 *139:151 *693:CK 1.39997
154 *139:113 *139:112 1.61567
155 *139:173 *139:172 1.36712
156 *139:248 *139:247 0.372884
157 *139:83 *139:249 0.124326
158 *139:151 *139:150 0.372884
159 *139:150 *139:113 1.39997
160 *139:221 *139:173 0.124326
161 *139:76 *856:CK 1.39997
162 *139:250 *855:CK 1.39997
163 *139:250 *139:248 1.39997
164 *139:250 *139:249 0.621442
165 *139:150 *139:149 0.372884
166 *139:222 *610:CK 1.39997
167 *139:222 *139:221 0.87
168 *139:77 *139:76 0.372884
169 *139:251 *139:250 0.621442
170 *139:100 *605:CK 1.39997
171 *139:111 *139:149 0.124326
172 *139:208 *689:CK 1.39997
173 *139:223 *139:222 0.994326
174 *139:77 *139:232 0.124326
175 *139:81 *863:CK 1.39997
176 *139:320 *139:251 0.248558
177 *139:74 *595:CK 1.39997
178 *139:287 *139:74 0.182855
179 *139:101 *139:100 1.36712
180 *139:111 *139:110 0.497116
181 *139:208 *139:207 1.24288
182 *139:160 *139:223 1.39997
183 *139:233 *139:232 0.248558
184 *139:81 *139:80 0.745674
185 *139:237 *139:320 1.39997
186 *139:75 *139:74 0.124326
187 *139:99 *139:101 1.39997
188 *139:148 *139:110 0.124326
189 *139:146 *688:CK 1.39997
190 *139:161 *139:207 1.39997
191 *139:161 *139:160 0.87
192 *139:240 *139:233 1.39997
193 *139:238 *139:80 1.39997
194 *139:238 *139:237 2.48567
195 *139:97 *139:75 1.39997
196 *139:97 *139:99 1.49144
197 *139:152 *687:CK 1.39997
198 *139:148 *139:147 1.61567
199 *139:147 *139:146 0.248558
200 *139:162 *139:161 1.74
201 *139:240 *139:239 0.745674
202 *139:239 *139:238 0.994326
203 *139:98 *139:97 2.61
204 *139:303 *686:CK 1.39997
205 *139:136 *516:CK 1.39997
206 *139:153 *139:152 1.61567
207 *139:137 *139:147 1.39997
208 *139:187 *139:162 1.39997
209 *139:213 *139:239 1.39997
210 *139:306 *515:CK 1.39997
211 *139:306 *139:98 1.39997
212 *139:303 *139:198 0.248558
213 *139:136 *139:135 1.98856
214 *139:138 *139:153 1.39997
215 *139:138 *139:137 1.36712
216 *139:216 *861:CK 1.39997
217 *139:186 *599:CK 1.39997
218 *139:187 *139:186 0.994326
219 *139:214 *860:CK 1.39997
220 *139:214 *139:213 2.98288
221 *139:305 *139:306 0.621442
222 *139:199 *139:198 0.248558
223 *139:139 *139:135 1.39997
224 *139:139 *139:138 2.98288
225 *139:217 *139:216 0.372884
226 *139:186 *139:185 0.248558
227 *139:317 *859:CK 1.39997
228 *139:230 *139:214 0.994326
229 *139:304 *139:305 1.39997
230 *139:140 *139:199 1.39997
231 *139:140 *139:139 0.745674
232 *139:242 *867:CK 1.39997
233 *139:209 *139:217 0.124326
234 *139:194 *139:185 1.39997
235 *139:313 *597:CK 1.39997
236 *139:317 *139:231 0.248558
237 *139:231 *139:230 0.124326
238 *139:297 *139:304 5.41333
239 *139:141 *139:140 0.994326
240 *139:243 *139:242 0.87
241 *139:210 *139:209 1.49144
242 *139:195 *139:194 2.85856
243 *139:313 *139:314 0.248558
244 *139:188 *609:CK 1.39997
245 *139:188 *139:231 1.24288
246 *139:298 *139:297 1.39997
247 *139:144 *139:141 0.124326
248 *139:299 *864:CK 1.39997
249 *139:225 *866:CK 1.39997
250 *139:243 *139:225 0.248558
251 *139:312 *862:CK 1.39997
252 *139:210 *139:176 0.124326
253 *139:197 *139:195 1.39997
254 *139:197 *139:314 0.248558
255 *139:189 *139:188 0.248558
256 *139:73 *514:CK 1.39997
257 *139:298 *139:73 0.621442
258 *139:145 *139:144 1.49144
259 *139:226 *139:299 0.124326
260 *139:226 *139:225 1.36712
261 *139:177 *139:312 0.372884
262 *139:177 *139:176 1.74
263 *139:197 *139:196 1.74
264 *139:183 *139:189 1.39997
265 *139:73 *139:72 0.745674
266 *139:145 *139:142 0.124326
267 *139:241 *865:CK 1.39997
268 *139:241 *139:226 0.87
269 *139:268 *608:CK 1.39997
270 *139:180 *596:CK 1.39997
271 *139:178 *139:177 0.248558
272 *139:184 *139:196 1.39997
273 *139:184 *139:183 0.994326
274 *139:103 *139:72 0.372884
275 *139:275 *604:CK 1.39997
276 *139:143 *139:142 0.372884
277 *139:272 *684:CK 1.39997
278 *139:205 *139:241 0.621442
279 *139:302 *873:CK 1.39997
280 *139:268 *139:267 0.621442
281 *139:180 *139:179 0.621442
282 *139:266 *139:178 1.39997
283 *139:266 *139:184 1.36712
284 *139:132 *513:CK 1.39997
285 *139:103 *139:102 3.48
286 *139:102 *139:275 0.248558
287 *139:273 *139:143 1.39997
288 *139:273 *139:272 0.248558
289 *139:206 *874:CK 1.39997
290 *139:206 *139:205 2.23712
291 *139:301 *139:302 0.248558
292 *139:301 *139:267 0.124326
293 *139:174 *139:179 1.39997
294 *139:174 *139:266 0.994326
295 *139:132 *139:131 0.621442
296 *139:102 *139:131 0.372884
297 *139:274 *139:273 0.621442
298 *139:220 *139:206 1.61567
299 *139:175 *139:301 1.39997
300 *139:175 *139:174 3.23144
301 *139:131 *139:130 1.61567
302 *139:130 *139:274 0.372884
303 *139:181 *139:220 1.39997
304 *139:181 *139:175 1.98856
305 *139:133 *139:130 1.39997
306 *139:182 *139:181 2.73433
307 *139:134 *139:133 2.85856
308 *139:165 *139:182 1.39997
309 *139:219 *510:CK 1.39997
310 *139:219 *139:134 1.39997
311 *139:166 *139:165 0.621442
312 *139:219 *139:218 0.372884
313 *139:169 *603:CK 1.39997
314 *139:169 *139:166 0.124326
315 *139:71 *139:218 0.621442
316 *139:170 *139:169 0.87
317 *139:71 *139:70 1.36712
318 *139:171 *139:170 0.124326
319 *139:70 *139:69 0.124326
320 *139:167 *612:CK 1.39997
321 *139:167 *139:171 0.497116
322 *139:69 *139:68 1.49144
323 *139:168 *139:167 2.11288
324 *139:159 *139:68 1.39997
325 *139:157 *139:168 1.39997
326 *139:159 *139:158 0.621442
327 *139:158 *139:157 0.621442
328 *139:294 *685:CK 1.39997
329 *139:294 *139:158 1.39997
330 *139:285 *139:294 0.19305
*END

*D_NET *140 0.0304943

*CONN
*P *140 I *C 37.845 0 *L 0
*I *850:B I *C 62.205 50.605 *L 0.00175 *D NOR2BXL
*I *839:B0 I *C 43.935 48.575 *L 0.00175 *D AO21X1
*I *766:A I *C 46.255 22.475 *L 0.00273 *D CLKINVX1
*I *754:A I *C 58.435 45.385 *L 0.00162 *D NOR2XL
*I *745:A I *C 46.545 43.355 *L 0.00162 *D NOR2XL
*I *741:A0 I *C 58.725 32.625 *L 0.00257 *D OAI32X1
*I *739:A0 I *C 57.855 37.845 *L 0.00257 *D OAI32X1
*I *737:B0 I *C 58.725 27.695 *L 0.00271 *D OAI32X1
*I *735:A I *C 45.385 29.725 *L 0.00162 *D NOR2XL
*I *727:A I *C 50.025 19.285 *L 0.00162 *D NOR2XL
*I *720:A0 I *C 46.835 16.965 *L 0.00257 *D OAI32X1
*I *718:B0 I *C 37.845 12.035 *L 0.00271 *D OAI32X1
*I *717:A I *C 16.095 24.505 *L 0.00162 *D NOR2XL
*I *715:B0 I *C 43.935 12.035 *L 0.00271 *D OAI32X1
*I *710:A I *C 12.615 24.505 *L 0.00162 *D NOR2XL
*I *707:A I *C 22.475 24.505 *L 0.00162 *D NOR2XL
*I *705:A I *C 30.015 24.505 *L 0.00259 *D NOR3X1
*I *703:B1 I *C 27.985 27.405 *L 0.00174 *D OAI22XL
*I *648:A I *C 19.285 19.285 *L 0.00273 *D CLKINVX1
*I *647:B I *C 20.735 16.965 *L 0.00171 *D NOR2XL
*I *629:A I *C 59.305 38.135 *L 0.00162 *D NOR2XL
*I *628:A I *C 29.435 32.915 *L 0.00162 *D NOR2XL
*I *627:A I *C 61.045 17.255 *L 0.00162 *D NOR2XL
*I *626:A I *C 44.805 34.945 *L 0.00162 *D NOR2XL
*I *625:A I *C 39.875 34.945 *L 0.00162 *D NOR2XL
*I *624:A I *C 25.955 34.945 *L 0.00162 *D NOR2XL
*I *623:A I *C 44.225 34.945 *L 0.00162 *D NOR2XL
*I *622:A I *C 14.065 32.915 *L 0.00162 *D NOR2XL
*I *621:A I *C 48.575 40.165 *L 0.00162 *D NOR2XL
*I *620:A I *C 33.205 12.035 *L 0.00162 *D NOR2XL
*I *619:A I *C 27.695 8.845 *L 0.00162 *D NOR2XL
*I *618:A I *C 54.375 12.035 *L 0.00162 *D NOR2XL
*I *617:A I *C 14.935 34.945 *L 0.00162 *D NOR2XL
*I *616:A I *C 59.305 14.065 *L 0.00162 *D NOR2XL
*I *615:A I *C 41.905 29.725 *L 0.00162 *D NOR2XL
*I *614:A I *C 34.655 34.945 *L 0.00162 *D NOR2XL
*I *613:A I *C 57.855 12.035 *L 0.00162 *D NOR2XL
*I *520:A I *C 10.585 8.845 *L 0.00162 *D NOR2XL
*I *519:A I *C 10.585 12.035 *L 0.00162 *D NOR2XL
*I *518:A I *C 25.085 14.065 *L 0.00162 *D NOR2XL
*I *517:A I *C 25.665 8.845 *L 0.00162 *D NOR2XL
*I *511:A I *C 19.865 17.255 *L 0.00162 *D NOR2XL

*CAP
1 *140 0.000463353
2 *850:B 3.68072e-05
3 *839:B0 3.68072e-05
4 *766:A 3.68072e-05
5 *754:A 3.68072e-05
6 *745:A 3.68072e-05
7 *741:A0 3.68072e-05
8 *739:A0 3.68072e-05
9 *737:B0 3.68072e-05
10 *735:A 3.68072e-05
11 *727:A 2.66207e-05
12 *720:A0 3.68072e-05
13 *718:B0 4.16769e-05
14 *717:A 3.68072e-05
15 *715:B0 3.68072e-05
16 *710:A 3.68072e-05
17 *707:A 3.68072e-05
18 *705:A 3.68072e-05
19 *703:B1 3.68072e-05
20 *648:A 1.28215e-05
21 *647:B 3.68072e-05
22 *629:A 3.68072e-05
23 *628:A 3.68072e-05
24 *627:A 2.582e-05
25 *626:A 2.582e-05
26 *625:A 3.68072e-05
27 *624:A 3.68072e-05
28 *623:A 5.31018e-05
29 *622:A 3.68072e-05
30 *621:A 3.68072e-05
31 *620:A 2.582e-05
32 *619:A 3.68072e-05
33 *618:A 3.68072e-05
34 *617:A 3.68072e-05
35 *616:A 2.56524e-05
36 *615:A 3.68072e-05
37 *614:A 3.68072e-05
38 *613:A 3.68072e-05
39 *520:A 2.56524e-05
40 *519:A 2.56524e-05
41 *518:A 3.68072e-05
42 *517:A 3.68072e-05
43 *511:A 3.68072e-05
44 *140:43 6.1966e-05
45 *140:44 0.000305324
46 *140:45 0.000320957
47 *140:46 0.000285211
48 *140:47 0.000242082
49 *140:48 0.000137145
50 *140:49 0.000167294
51 *140:50 8.0067e-05
52 *140:51 8.92479e-05
53 *140:52 8.24134e-05
54 *140:53 0.000166531
55 *140:54 0.000116576
56 *140:55 0.00028928
57 *140:56 0.000290482
58 *140:57 9.50394e-05
59 *140:58 9.50394e-05
60 *140:59 0.000103969
61 *140:60 0.000161112
62 *140:61 8.84285e-05
63 *140:62 3.87905e-05
64 *140:63 3.87905e-05
65 *140:64 6.98992e-05
66 *140:65 7.10724e-05
67 *140:66 7.27856e-05
68 *140:67 0.000227175
69 *140:68 0.000264075
70 *140:69 0.000264075
71 *140:70 0.000310882
72 *140:71 4.47217e-05
73 *140:72 0.000346721
74 *140:73 0.000324421
75 *140:74 0.000120068
76 *140:75 0.000290733
77 *140:76 0.000279085
78 *140:77 0.000197379
79 *140:78 0.00017154
80 *140:79 0.000227296
81 *140:80 0.000227296
82 *140:81 9.43504e-05
83 *140:82 9.43504e-05
84 *140:83 0.000330808
85 *140:84 0.000385037
86 *140:85 0.000299262
87 *140:86 0.000245034
88 *140:87 6.00945e-05
89 *140:88 7.60818e-05
90 *140:89 0.000308927
91 *140:90 0.000274736
92 *140:91 0.000140757
93 *140:92 0.000231141
94 *140:93 0.000384925
95 *140:94 0.000301385
96 *140:95 0.000149966
97 *140:96 0.000149966
98 *140:97 7.05323e-05
99 *140:98 6.96198e-05
100 *140:99 8.26648e-05
101 *140:100 8.3568e-05
102 *140:101 7.35305e-05
103 *140:102 4.22635e-05
104 *140:103 0.000162201
105 *140:104 6.18171e-05
106 *140:105 7.62401e-05
107 *140:106 9.03373e-05
108 *140:107 6.02807e-05
109 *140:108 0.000111101
110 *140:109 7.69105e-05
111 *140:110 4.54014e-05
112 *140:111 5.62862e-05
113 *140:112 0.000149901
114 *140:113 0.000149901
115 *140:114 0.000160069
116 *140:115 0.000298638
117 *140:116 0.000172378
118 *140:117 9.31492e-05
119 *140:118 0.000130524
120 *140:119 0.000137685
121 *140:120 3.90325e-05
122 *140:121 3.90325e-05
123 *140:122 0.000324626
124 *140:123 0.00026373
125 *140:124 0.000171075
126 *140:125 0.000171075
127 *140:126 4.84462e-05
128 *140:127 7.99925e-05
129 *140:128 7.99925e-05
130 *140:129 6.56626e-05
131 *140:130 7.59794e-05
132 *140:131 0.000160581
133 *140:132 0.000200284
134 *140:133 8.13426e-05
135 *140:134 0.000196597
136 *140:135 0.000293219
137 *140:136 0.000130431
138 *140:137 0.000156223
139 *140:138 0.000187555
140 *140:139 0.000131269
141 *140:140 0.000131269
142 *140:141 0.000134528
143 *140:142 7.78137e-05
144 *140:143 0.000107079
145 *140:144 0.000185386
146 *140:145 8.88195e-05
147 *140:146 8.88195e-05
148 *140:147 0.000372895
149 *140:148 0.000155786
150 *140:149 0.000179492
151 *140:150 0.000196336
152 *140:151 0.00022751
153 *140:152 0.00022751
154 *140:153 5.55134e-05
155 *140:154 7.16776e-05
156 *140:155 0.000264494
157 *140:156 0.000277679
158 *140:157 0.00027942
159 *140:158 0.000171298
160 *140:159 7.95549e-05
161 *140:160 8.07188e-05
162 *140:161 3.49822e-05
163 *140:162 6.9415e-05
164 *140:163 8.13799e-05
165 *140:164 0.000236011
166 *140:165 7.68733e-05
167 *140:166 0.000260946
168 *140:167 8.15102e-05
169 *140:168 8.15102e-05
170 *140:169 5.41632e-05
171 *140:170 0.000110235
172 *140:171 4.04385e-05
173 *140:172 0.000610209492
174 *140:173 0.00054491
175 *140:174 8.94248e-05
176 *140:175 0.00010314
177 *140:176 0.00010314
178 *140:177 0.000155404
179 *140:178 4.2068e-05
180 *140:179 0.000143262
181 *140:180 0.000134323
182 *140:181 0.000216998
183 *140:182 4.44703e-05
184 *140:183 0.000139407
185 *140:184 7.21246e-05
186 *140:185 0.000208496
187 *140:186 0.000168831
188 *140:187 0.000121642
189 *140:188 9.47135e-05
190 *140:189 9.65944e-05
191 *140:190 0.000480877
192 *140:191 0.000326749
193 *140:192 0.000307195
194 *140:200 0.000159082
195 *140:201 0.000159082
196 *140:202 4.59601e-05
197 *140:203 4.59601e-05
198 *140:204 5.70963e-05
199 *140:205 8.86985e-05
200 *140:206 4.22263e-05
201 *140:207 4.01033e-05
202 *140:208 4.16397e-05
203 *140:209 3.24495e-05
204 *140:210 3.24495e-05
205 *140:211 4.16397e-05
206 *140:212 4.61184e-05
207 *140:213 3.24495e-05
208 *140:214 5.94427e-05
209 *140:215 5.94427e-05
210 *140:216 5.33718e-05
211 *140:217 4.57366e-05
212 *140:218 3.90977e-05
213 *140:219 6.99364e-05
214 *140:220 4.69191e-05
215 *140:221 3.24495e-05
216 *140:222 4.34833e-05
217 *140:223 7.35492e-05
218 *140:224 8.72646e-05
219 *140:225 4.59601e-05
220 *140:226 4.22263e-05
221 *140:227 0.000116297
222 *140:228 0.000116297
223 *140:229 9.04211e-05
224 *140:230 9.15943e-05
225 *140:172 *175:15 8.456e-05
226 *140:173 *175:13 8.456e-05
227 *140:177 *175:6 2.927e-05
228 *140:172 *175:7 2.927e-05
229 *140:172 *175:6 1.429e-05
230 *140:173 *175:7 1.42899976e-05
231 *140:108 *96:12 0.00014429
232 *140:89 *96:13 0.00014429
233 *140:89 *96:12 0.00031502
234 *140:90 *96:13 0.00031502
235 *140:90 *96:12 0.0001092
236 *140:109 *96:13 0.000109199994
237 *140:230 *114:8 8.9e-06
238 *140:229 *114:9 8.9e-06
239 *140:104 *114:4 4.82e-05
240 *140:105 *114:5 4.82e-05
241 *140:167 *114:4 1.389e-05
242 *140:168 *114:5 1.389e-05
243 *140:129 *114:4 7.95e-06
244 *140:130 *114:5 7.95e-06
245 *140:130 *114:4 1.002e-05
246 *140:224 *114:5 1.002e-05
247 *140:223 *114:2 3.7e-05
248 *140:222 *114:3 3.69999991e-05
249 *140:155 *28:13 0.00019687
250 *140:156 *28:12 0.00019687
251 *140:157 *28:13 5.964e-05
252 *140:158 *28:12 5.96400126e-05

*RES
1 *140:58 *619:A 1.4
2 *140:58 *140:57 0.497145
3 *140:226 *627:A 0.386699
4 *140:80 *140:57 1.4
5 *140:226 *140:110 0.193315
6 *140:80 *140:79 2.11285
7 *140:212 *620:A 0.386699
8 *140:111 *140:110 0.386699
9 *140:43 *718:B0 0.580014
10 *140:126 *140:79 1.4
11 *140:87 *140:212 1.4
12 *140:104 *140:111 1.4
13 *140:215 *140:43 1.4
14 *140:126 *140:88 0.497145
15 *140:88 *140:87 0.372876
16 *140:105 *140:104 0.497145
17 *140:214 *140:215 0.372876
18 *140:86 *140:88 1.4
19 *140:167 *140:105 0.248537
20 *140:73 *737:B0 1.4
21 *140:85 *140:214 1.4
22 *140:86 *140:85 1.86431
23 *140 *140:190 4.5985713
24 *140:168 *140:167 0.621413
25 *140:72 *741:A0 1.4
26 *140:73 *140:72 2.11285
27 *140:85 *140:84 0.372876
28 *140:84 *140:190 1.4
29 *140:225 *616:A 0.386699
30 *140:129 *140:168 0.248537
31 *140:72 *140:76 0.248537
32 *140:230 *850:B 1.4
33 *140:84 *140:83 2.48572
34 *140:130 *140:225 1.4
35 *140:130 *140:129 0.372876
36 *140:75 *629:A 1.4
37 *140:76 *140:75 2.36145
38 *140:229 *140:230 0.870021
39 *140:65 *140:83 1.4
40 *140:224 *140:130 0.497145
41 *140:71 *739:A0 1.4
42 *140:75 *140:74 0.248537
43 *140:228 *140:229 0.124269
44 *140:65 *140:64 0.372876
45 *140:223 *140:224 0.372876
46 *140:71 *140:70 0.372876
47 *140:70 *140:74 0.621413
48 *140:227 *140:228 1.11856
49 *140:217 *715:B0 1.4
50 *140:64 *140:217 0.124269
51 *140:222 *613:A 1.4
52 *140:199 *140:222 0.193034
53 *140:222 *140:223 0.372876
54 *140:70 *140:164 2.11285
55 *140:227 *140:159 0.124269
56 *140:220 *727:A 0.386699
57 *140:217 *140:218 0.124269
58 *140:221 *618:A 1.4
59 *140:198 *140:221 0.193034
60 *140:108 *140:222 1.4
61 *140:164 *140:163 0.248537
62 *140:161 *754:A 1.4
63 *140:160 *140:159 0.621413
64 *140:120 *140:220 1.4
65 *140:109 *140:218 1.4
66 *140:89 *140:221 1.4
67 *140:89 *140:108 1.49143
68 *140:69 *621:A 1.4
69 *140:163 *140:162 0.497145
70 *140:162 *140:161 0.248537
71 *140:177 *140:160 1.4
72 *140:197 *140:121 0.0643446
73 *140:121 *140:120 0.124269
74 *140:109 *140:90 1.11856
75 *140:90 *140:89 3.23141
76 *140:69 *140:68 1.98858
77 *140:172 *140:162 1.4
78 *140:172 *140:177 1.6157
79 *140:112 *140:121 1.4
80 *140:94 *140:90 1.4
81 *140:173 *140:68 1.4
82 *140:173 *140:172 4.2257
83 *140:113 *140:112 1.11856
84 *140:93 *720:A0 1.4
85 *140:94 *140:93 2.11285
86 *140:176 *745:A 1.4
87 *140:174 *140:173 0.621413
88 *140:103 *140:113 1.4
89 *140:93 *140:103 0.870021
90 *140:176 *140:175 0.745682
91 *140:174 *140:178 0.124269
92 *140:103 *140:117 0.870021
93 *140:179 *140:175 1.4
94 *140:179 *140:178 0.248537
95 *140:119 *140:117 0.248537
96 *140:180 *140:179 1.11856
97 *140:183 *839:B0 1.4
98 *140:118 *766:A 1.4
99 *140:119 *140:118 0.621413
100 *140:157 *140:180 1.4
101 *140:157 *140:183 1.36717
102 *140:118 *140:219 0.248537
103 *140:158 *140:157 1.98858
104 *140:181 *140:219 0.372876
105 *140:66 *735:A 1.4
106 *623:A *626:A 0.386699
107 *140:158 *140:155 0.124269
108 *140:139 *615:A 1.4
109 *140:181 *140:67 1.98858
110 *140:67 *140:66 0.870021
111 *140:156 *623:A 1.4
112 *140:156 *140:155 2.36145
113 *140:140 *140:139 0.870021
114 *140:134 *140:67 1.4
115 *140:182 *140:156 0.248537
116 *140:135 *140:140 1.4
117 *140:135 *140:134 1.49143
118 *140:151 *140:182 1.4
119 *140:136 *140:135 0.870021
120 *140:152 *140:151 1.86431
121 *140:192 *140:136 1.4
122 *140:63 *625:A 1.4
123 *140:196 *140:63 0.0643446
124 *140:191 *140:152 1.4
125 *140:192 *140:191 2.8586
126 *140:63 *140:62 0.124269
127 *140:191 *140:216 0.372876
128 *140:153 *140:62 1.4
129 *140:153 *140:216 1.4
130 *140:154 *140:153 0.372876
131 *140:154 *140:149 0.248537
132 *140:150 *140:149 1.6157
133 *140:210 *624:A 1.4
134 *140:194 *140:210 0.193034
135 *140:213 *614:A 1.4
136 *140:195 *140:213 0.0300322
137 *140:165 *140:150 0.372876
138 *140:148 *140:210 1.4
139 *140:166 *140:213 1.4
140 *140:166 *140:165 0.248537
141 *140:148 *140:147 1.49143
142 *140:147 *140:166 2.23712
143 *520:A *140:202 0.386699
144 *140:59 *140:147 1.4
145 *519:A *140:203 0.386699
146 *140:78 *140:202 1.4
147 *140:60 *628:A 1.4
148 *140:60 *140:59 0.870021
149 *140:77 *140:203 1.4
150 *140:78 *140:77 1.36717
151 *140:48 *617:A 1.4
152 *140:61 *140:60 0.994289
153 *140:77 *140:204 0.372876
154 *140:49 *140:48 1.11856
155 *140:206 *622:A 1.4
156 *140:145 *140:61 0.124269
157 *140:200 *140:204 0.124269
158 *140:141 *140:49 0.372876
159 *140:141 *140:206 0.248537
160 *140:146 *140:145 0.497145
161 *140:200 *140:201 1.49143
162 *140:142 *140:141 0.372876
163 *140:137 *140:146 0.124269
164 *140:201 *140:102 0.124269
165 *140:142 *140:143 0.124269
166 *140:211 *703:B1 1.4
167 *140:138 *140:137 1.24283
168 *140:102 *140:101 0.372876
169 *140:144 *140:143 1.24283
170 *140:189 *140:211 0.248537
171 *140:189 *140:138 0.372876
172 *140:101 *140:45 0.372876
173 *140:46 *140:144 0.745682
174 *140:127 *705:A 1.4
175 *140:131 *140:189 0.248537
176 *140:45 *140:44 2.60999
177 *140:47 *710:A 1.4
178 *140:47 *140:46 1.73997
179 *140:128 *140:127 0.621413
180 *140:132 *140:131 0.870021
181 *140:44 *140:205 0.248537
182 *140:205 *140:47 0.497145
183 *140:188 *140:128 1.4
184 *140:133 *140:132 0.372876
185 *140:125 *140:205 1.4
186 *140:122 *140:188 0.870021
187 *140:122 *140:133 1.4
188 *140:125 *140:124 1.49143
189 *140:184 *717:A 1.4
190 *140:52 *707:A 1.4
191 *140:123 *140:122 2.36145
192 *140:185 *140:124 1.4
193 *140:185 *140:184 0.497145
194 *140:53 *140:52 0.621413
195 *140:53 *140:123 1.4
196 *140:186 *140:185 1.36717
197 *140:54 *140:53 1.24283
198 *140:116 *140:186 1.4
199 *140:114 *140:54 1.4
200 *140:116 *140:115 1.49143
201 *140:115 *140:114 1.24283
202 *648:A *140:207 0.193315
203 *140:50 *140:115 1.4
204 *140:51 *140:207 1.4
205 *140:51 *140:50 0.372876
206 *140:171 *140:51 0.248537
207 *140:208 *511:A 1.4
208 *140:171 *140:169 0.124269
209 *140:208 *140:170 0.248537
210 *140:170 *140:169 0.372876
211 *140:170 *140:106 0.372876
212 *140:107 *647:B 1.4
213 *140:107 *140:106 0.372876
214 *140:100 *140:107 1.4
215 *140:100 *140:99 0.372876
216 *140:99 *140:96 0.124269
217 *140:96 *140:95 1.11856
218 *140:98 *140:95 0.124269
219 *140:98 *140:97 0.372876
220 *140:91 *140:97 1.4
221 *140:92 *518:A 1.4
222 *140:92 *140:91 1.24283
223 *140:187 *140:92 0.745682
224 *140:55 *140:187 0.124269
225 *140:56 *140:55 1.49143
226 *140:82 *140:56 1.4
227 *140:82 *140:81 0.372876
228 *140:209 *517:A 1.4
229 *140:209 *140:81 1.4
230 *140:193 *140:209 0.193034
*END

*D_NET *142 0.00313862

*CONN
*P *142 I *C 0 35.525 *L 0
*I *634:B I *C 33.2 35.575 *L 0.00164 *D MXI2XL

*CAP
1 *142 0.00149213
2 *634:B 3.67884e-05
3 *142:5 3.24346e-05
4 *142:6 3.37937e-05
5 *142:7 3.37937e-05
6 *142:8 0.00150966

*RES
1 *142 *142:8 14.0442858
2 *142:4 *142:7 0.193083
3 *142:7 *142:8 1.40001
4 *142:3 *142:6 0.193083
5 *142:6 *142:7 1.40001
6 *142:5 *634:B 1.40001
7 *142:5 *142:6 1.40001
8 *142:2 *142:5 0.193083
*END

*D_NET *143 0.00257316

*CONN
*P *143 I *C 0 32.335 *L 0
*I *645:B I *C 28.28 32.285 *L 0.00164 *D MXI2XL

*CAP
1 *143 3.5847e-05
2 *645:B 3.68039e-05
3 *143:2 4.23227e-05
4 *143:3 4.23227e-05
5 *143:6 2.85854e-05
6 *143:7 5.24891e-05
7 *143:8 0.00111886
8 *143:9 2.85854e-05
9 *143:10 3.37967e-05
10 *143:11 3.37967e-05
11 *143:12 0.00111975

*RES
1 *143 *143:7 0.37285
2 *143:6 *143:7 0.124225
3 *143:6 *143:9 0.124225
4 *143:8 *143:9 0.124225
5 *143:2 *645:B 1.39997
6 *143:8 *143:12 11.4342861
7 *143:3 *143:2 0.248625
8 *143:5 *143:11 0.193142
9 *143:11 *143:12 1.39997
10 *143:10 *143:3 1.39997
11 *143:10 *143:11 1.39997
12 *143:4 *143:10 0.193142
*END

*D_NET *144 0.00258872

*CONN
*P *144 I *C 0 35.525 *L 0
*I *643:B I *C 23.92 32.285 *L 0.00164 *D MXI2XL

*CAP
1 *144 1.35621e-05
2 *643:B 3.68047e-05
3 *144:2 0.000113535
4 *144:3 0.000113535
5 *144:4 0.00103831
6 *144:5 0.00103831
7 *144:8 6.63213e-05
8 *144:9 6.63213e-05
9 *144:10 3.44281e-05
10 *144:11 3.38102e-05
11 *144:12 3.38102e-05

*RES
1 *144 *144:10 0.124255
2 *144:9 *144:10 1.40003
3 *144:8 *144:9 0.497173
4 *144:5 *144:8 1.40003
5 *144:3 *643:B 1.40003
6 *144:5 *144:4 9.94285679
7 *144:3 *144:2 0.869939
8 *144:7 *144:12 0.193134
9 *144:12 *144:4 1.40003
10 *144:11 *144:2 1.40003
11 *144:11 *144:12 1.40003
12 *144:6 *144:11 0.193134
*END

*D_NET *145 0.00283772

*CONN
*P *145 I *C 0 32.335 *L 0
*I *646:B I *C 16.97 30.355 *L 0.00164 *D MXI2XL

*CAP
1 *145 8.54856e-05
2 *646:B 3.6808e-05
3 *145:2 0.00112248
4 *145:3 0.00112179
5 *145:4 0.000111075
6 *145:5 0.000111075
7 *145:9 4.12612e-05
8 *145:10 3.38106e-05
9 *145:11 3.38106e-05
10 *145:12 3.38106e-05
11 *145:13 0.000106347

*RES
1 *145:5 *646:B 1.40001
2 *145:5 *145:4 0.745703
3 *145:2 *145:4 1.40001
4 *145 *145:13 0.745703
5 *145:3 *145:2 6.33857155
6 *145:8 *145:12 0.193051
7 *145:12 *145:13 1.40001
8 *145:3 *145:9 0.124284
9 *145:7 *145:11 0.193051
10 *145:11 *145:12 1.40001
11 *145:10 *145:9 1.40001
12 *145:10 *145:11 1.40001
13 *145:6 *145:10 0.193051
*END

*D_NET *146 0.0024317

*CONN
*P *146 I *C 0 35.815 *L 0
*I *637:B I *C 16.97 35.575 *L 0.00164 *D MXI2XL

*CAP
1 *146 0.000737345
2 *637:B 3.68044e-05
3 *146:2 0.000235971
4 *146:3 0.000235971
5 *146:8 2.94677e-05
6 *146:9 2.94677e-05
7 *146:10 3.37948e-05
8 *146:11 3.37948e-05
9 *146:12 0.000119285
10 *146:13 0.000115224
11 *146:14 0.00079211
12 *146:15 3.24531e-05

*RES
1 *146 *146:14 0.629098
2 *146:13 *146:14 0.35
3 *146:12 *146:13 0.35
4 *146:15 *637:B 1.39999998
5 *146:7 *146:15 0.193051
6 *146:6 *146:11 0.193051
7 *146:11 *146:12 1.39999998
8 *146:2 *146:15 1.39999998
9 *146:5 *146:10 0.193051
10 *146:10 *146:11 1.39999998
11 *146:3 *146:2 1.24286
12 *146:9 *146:10 1.39999998
13 *146:8 *146:3 1.39999998
14 *146:8 *146:9 0.124286
15 *146:4 *146:8 0.0643219
*END

*D_NET *147 0.00103146

*CONN
*P *147 I *C 30.885 0 *L 0
*I *639:B I *C 30.88 11.405 *L 0.00164 *D MXI2XL

*CAP
1 *147 0.000394961
2 *639:B 3.67959e-05
3 *147:2 7.67073e-05
4 *147:3 7.67073e-05
5 *147:5 3.37998e-05
6 *147:6 0.00041249

*RES
1 *147:2 *639:B 1.39997
2 *147:3 *147:2 0.745714
3 *147 *147:6 3.97714281
4 *147:5 *147:3 1.39997
5 *147:5 *147:6 1.39997
6 *147:4 *147:5 0.193043
*END

*D_NET *148 0.00107343

*CONN
*P *148 I *C 28.275 0 *L 0
*I *636:B I *C 28.28 11.405 *L 0.00164 *D MXI2XL

*CAP
1 *148 0.000365009
2 *636:B 3.68006e-05
3 *148:2 0.00047224
4 *148:3 0.000144889
5 *148:4 5.44912e-05

*RES
1 *148:4 *636:B 1.4
2 *148:3 *148:4 0.372872
3 *148:2 *148:3 0.87
4 *148 *148:2 3.48000002
*END

*D_NET *149 0.00153139

*CONN
*P *149 I *C 51.185 0 *L 0
*I *635:B I *C 47.12 11.405 *L 0.00164 *D MXI2XL

*CAP
1 *149 1.21388e-05
2 *635:B 3.67984e-05
3 *149:2 0.000346368
4 *149:3 0.00034754
5 *149:4 0.00010313
6 *149:5 0.00010313
7 *149:6 5.82972e-05
8 *149:7 5.71305e-05
9 *149:10 3.38021e-05
10 *149:11 3.38021e-05
11 *149:12 0.000184793
12 *149:13 0.000184793
13 *149:14 2.9671e-05

*RES
1 *149:6 *635:B 1.39999
2 *149:7 *149:6 0.372865
3 *149:4 *149:7 0.124305
4 *149 *149:14 0.124305
5 *149:5 *149:4 0.99429
6 *149:13 *149:14 1.39999
7 *149:5 *149:2 0.124305
8 *149:12 *149:13 1.74002
9 *149:3 *149:2 3.23142862
10 *149:9 *149:11 0.19304
11 *149:11 *149:12 1.39999
12 *149:10 *149:3 1.39999
13 *149:10 *149:11 1.39999
14 *149:8 *149:10 0.19304
*END

*D_NET *150 0.00111457

*CONN
*P *150 I *C 56.405 0 *L 0
*I *630:B I *C 56.4 11.405 *L 0.00164 *D MXI2XL

*CAP
1 *150 0.000198508
2 *630:B 3.67993e-05
3 *150:2 0.00010568
4 *150:3 0.00010568
5 *150:4 6.55507e-05
6 *150:5 6.55507e-05
7 *150:6 0.00021414
8 *150:7 0.000103637
9 *150:8 0.000103637
10 *150:9 5.70909e-05
11 *150:10 5.82901e-05

*RES
1 *150:10 *630:B 1.4
2 *150:9 *150:10 0.372857
3 *150:2 *150:9 0.124286
4 *150:3 *150:2 0.994286
5 *150:3 *150:8 0.124286
6 *150:7 *150:8 0.87
7 *150:5 *150:7 0.124286
8 *150 *150:6 1.98857141
9 *150:4 *150:5 0.497143
10 *150:4 *150:6 0.124286
*END

*D_NET *151 0.00138927

*CONN
*P *151 I *C 56.985 0 *L 0
*I *633:B I *C 56.98 14.695 *L 0.00164 *D MXI2XL

*CAP
1 *151 0.00034926
2 *633:B 3.68004e-05
3 *151:2 9.73917e-05
4 *151:3 9.73917e-05
5 *151:5 0.000144801
6 *151:6 0.000144801
7 *151:7 0.00036591
8 *151:8 5.91173e-05
9 *151:9 3.38021e-05
10 *151:10 5.99995e-05

*RES
1 *151 *151:7 3.60428572
2 *151:5 *151:7 0.124293
3 *151:5 *151:6 1.36712
4 *151:2 *633:B 1.4
5 *151:6 *151:8 0.124293
6 *151:3 *151:2 0.745705
7 *151:8 *151:10 0.37288
8 *151:9 *151:3 1.4
9 *151:9 *151:10 1.4
10 *151:4 *151:9 0.19304
*END

*D_NET *152 0.00253286

*CONN
*P *152 I *C 39.295 0 *L 0
*I *631:B I *C 39.3 27.065 *L 0.00164 *D MXI2XL

*CAP
1 *152 0.000411468
2 *631:B 3.6799e-05
3 *152:2 5.36727e-05
4 *152:3 5.36727e-05
5 *152:4 0.00074067
6 *152:5 0.00074067
7 *152:6 0.000428297
8 *152:9 3.3804e-05
9 *152:10 3.3804e-05

*RES
1 *152:2 *631:B 1.40005
2 *152:3 *152:2 0.372872
3 *152:10 *152:3 1.40005
4 *152:8 *152:10 0.193074
5 *152:4 *152:10 1.40005
6 *152:5 *152:4 6.96000004
7 *152 *152:6 4.10138
8 *152:9 *152:5 1.40005
9 *152:9 *152:6 1.40005
10 *152:7 *152:9 0.193074
*END

*D_NET *153 0.00216705

*CONN
*P *153 I *C 73.37 40.745 *L 0
*I *638:B I *C 50.03 40.795 *L 0.00164 *D MXI2XL

*CAP
1 *153 3.32948e-05
2 *638:B 3.67988e-05
3 *153:2 4.5402e-05
4 *153:3 4.5402e-05
5 *153:6 3.38018e-05
6 *153:7 3.38018e-05
7 *153:8 0.00096139
8 *153:9 0.00097715

*RES
1 *153:9 *153 0.248551
2 *153:2 *638:B 1.40006
3 *153:8 *153:9 9.81857109
4 *153:3 *153:2 0.248551
5 *153:5 *153:7 0.193117
6 *153:7 *153:8 1.40006
7 *153:6 *153:3 1.40006
8 *153:6 *153:7 1.40006
9 *153:4 *153:6 0.193117
*END

*D_NET *154 0.00133358

*CONN
*P *154 I *C 73.37 16.675 *L 0
*I *642:B I *C 58.72 16.625 *L 0.00164 *D MXI2XL

*CAP
1 *154 0.000223238
2 *642:B 3.67989e-05
3 *154:2 0.000225182
4 *154:3 0.000226061
5 *154:5 3.24502e-05
6 *154:6 0.000174979
7 *154:7 0.00023989
8 *154:8 0.000174979

*RES
1 *154:7 *154 2.3614285
2 *154:7 *154:8 0.124276
3 *154:6 *154:8 1.86429
4 *154:2 *154:6 0.124276
5 *154:3 *154:2 1.86429
6 *154:5 *642:B 1.40001
7 *154:5 *154:3 1.40001
8 *154:4 *154:5 0.193062
*END

*D_NET *155 0.00396267

*CONN
*P *155 I *C 73.37 35.525 *L 0
*I *644:B I *C 41.9 35.575 *L 0.00164 *D MXI2XL

*CAP
1 *155 4.19867e-05
2 *644:B 3.68047e-05
3 *155:2 0.000199357
4 *155:3 0.000199357
5 *155:4 0.000533961
6 *155:5 0.00053481
7 *155:6 8.19903e-05
8 *155:7 8.19903e-05
9 *155:8 0.000128498
10 *155:9 0.000111826
11 *155:10 0.000140788
12 *155:11 0.000140788
13 *155:13 3.24469e-05
14 *155:14 0.000247717
15 *155:15 0.000231053
16 *155:16 5.86671e-05
17 *155:6 *28:2 8.493e-05
18 *155:7 *28:3 8.493e-05
19 *155:4 *28:2 0.00037346
20 *155:5 *28:3 0.00037346
21 *155:8 *28:2 3.952e-05
22 *155:9 *28:3 3.952e-05
23 *155:10 *28:2 5.169e-05
24 *155:11 *28:3 5.169e-05
25 *155:2 *28:4 3.071e-05
26 *155:3 *28:5 3.07099958e-05

*RES
1 *155:16 *155 0.372842
2 *155:15 *155:16 0.124255
3 *155:14 *155:15 2.11287
4 *155:2 *155:14 0.248587
5 *155:3 *155:2 2.36146
6 *155:3 *155:8 0.248587
7 *155:9 *155:8 1.1186
8 *155:9 *155:6 0.124255
9 *155:7 *155:6 0.870015
10 *155:10 *155:7 0.124255
11 *155:11 *155:10 1.49144
12 *155:11 *155:4 0.124255
13 *155:5 *155:4 4.97142839
14 *155:13 *644:B 1.40003
15 *155:13 *155:5 1.40003
16 *155:12 *155:13 0.193059
*END

*D_NET *156 0.00356827

*CONN
*P *156 I *C 37.555 70.47 *L 0
*I *632:B I *C 37.55 35.575 *L 0.00164 *D MXI2XL

*CAP
1 *156 0.000229525
2 *632:B 3.67953e-05
3 *156:2 0.000362038
4 *156:3 0.000516715
5 *156:4 0.000770212
6 *156:5 0.0007847
7 *156:6 0.000415465
8 *156:7 0.000226448
9 *156:8 0.000226388

*RES
1 *156:2 *156 2.48574
2 *156:3 *156:2 0.86997
3 *156:6 *156:3 2.98286
4 *156:6 *156:8 0.248602
5 *156:7 *156:8 2.48574
6 *156:5 *156:7 0.248602
7 *156:4 *156:5 5.96571445
8 *632:B *156:4 1.40003
*END

*D_NET *157 0.00240007

*CONN
*P *157 I *C 73.37 37.555 *L 0
*I *641:B I *C 47.42 37.505 *L 0.00164 *D MXI2XL

*CAP
1 *157 0.00112284
2 *641:B 3.68033e-05
3 *157:5 3.2453e-05
4 *157:6 3.37929e-05
5 *157:7 3.37929e-05
6 *157:8 0.00114038

*RES
1 *157:8 *157 10.9371433
2 *157:4 *157:7 0.193089
3 *157:7 *157:8 1.40002
4 *157:3 *157:6 0.193089
5 *157:6 *157:7 1.40002
6 *157:5 *641:B 1.40002
7 *157:5 *157:6 1.40002
8 *157:2 *157:5 0.193089
*END

*D_NET *158 0.00161412

*CONN
*P *158 I *C 73.37 40.745 *L 0
*I *640:B I *C 58.72 40.795 *L 0.00164 *D MXI2XL

*CAP
1 *158 0.000515519
2 *640:B 3.67988e-05
3 *158:2 0.000172904
4 *158:3 0.000172904
5 *158:7 3.90987e-05
6 *158:8 3.90987e-05
7 *158:9 3.38032e-05
8 *158:10 3.38032e-05
9 *158:11 3.38032e-05
10 *158:12 0.00053639

*RES
1 *158:7 *640:B 1.40001
2 *158:7 *158:8 0.124312
3 *158:12 *158 4.722857
4 *158:3 *158:8 1.40001
5 *158:6 *158:11 0.193062
6 *158:11 *158:12 1.40001
7 *158:3 *158:2 1.24283
8 *158:5 *158:10 0.193062
9 *158:10 *158:11 1.40001
10 *158:9 *158:2 1.40001
11 *158:9 *158:10 1.40001
12 *158:4 *158:9 0.193062
*END

*D_NET *159 0.00416489

*CONN
*P *159 O *C 33.495 0 *L 0.05
*I *705:B I *C 30.305 24.505 *L 0.00272 *D NOR3X1
*I *702:A1 I *C 33.205 24.215 *L 0.00273 *D AOI32X1
*I *688:Q O *C 31.465 22.765 *L 0 *D DFFQX1
*I *530:A0 I *C 34.655 27.695 *L 0.00271 *D OAI21X1
*I *529:A0 I *C 34.31 24.4925 *L 0.00263 *D AOI211X1

*CAP
1 *159 0.00042352
2 *705:B 3.68013e-05
3 *702:A1 3.68013e-05
4 *688:Q 3.68013e-05
5 *530:A0 2.56566e-05
6 *529:A0 3.68013e-05
7 *159:6 6.20744e-05
8 *159:7 0.000107887
9 *159:8 0.000439183
10 *159:9 0.000199837
11 *159:10 0.000229987
12 *159:11 0.000785337422
13 *159:12 0.000757248
14 *159:13 5.93781e-05
15 *159:14 0.000118313
16 *159:15 8.10922e-05
17 *159:16 5.10137e-05
18 *159:17 4.07079e-05
19 *159:18 7.41178e-05
20 *159:19 3.91021e-05
21 *159:20 0.000109493
22 *159:21 7.10261e-05
23 *159:22 7.15294e-05
24 *159:23 4.59566e-05
25 *159:11 *211:15 3.769e-05
26 *159:12 *211:13 3.769e-05
27 *159:11 *211:13 7.491e-05
28 *159:12 *211:11 7.49100023e-05

*RES
1 *530:A0 *159:23 0.386678
2 *159:9 *159:23 1.40002
3 *159 *159:8 4.47426
4 *159:22 *529:A0 1.40002
5 *159:10 *159:9 1.61572
6 *159:12 *159:8 0.124248
7 *159:13 *702:A1 1.40002
8 *159:20 *159:22 0.372827
9 *159:20 *159:10 0.372827
10 *159:12 *159:11 5.46857166
11 *159:11 *159:13 0.248579
12 *159:21 *159:20 1.40002
13 *159:14 *159:11 1.40002
14 *159:14 *159:21 0.497158
15 *159:15 *159:14 0.621406
16 *159:17 *688:Q 1.40002
17 *159:19 *159:15 1.40002
18 *159:17 *159:16 0.372827
19 *159:16 *159:19 0.124248
20 *159:6 *705:B 1.40002
21 *159:16 *159:18 0.124248
22 *159:7 *159:6 0.372827
23 *159:7 *159:18 0.497158
*END

*D_NET *160 0.00479556

*CONN
*P *160 O *C 27.695 0 *L 0.05
*I *706:A I *C 29.145 27.405 *L 0.00157 *D NAND2XL
*I *703:A0 I *C 27.115 27.405 *L 0.00154 *D OAI22XL
*I *702:B1 I *C 32.045 24.505 *L 0.00284 *D AOI32X1
*I *687:Q O *C 29.435 24.215 *L 0 *D DFFQX1
*I *536:B0 I *C 25.665 29.725 *L 0.00274 *D AOI221X1
*I *533:B0 I *C 29.435 30.015 *L 0.00274 *D OAI221X1

*CAP
1 *160 0.00101773
2 *706:A 3.68071e-05
3 *703:A0 1.31431e-05
4 *702:B1 3.68071e-05
5 *687:Q 3.68071e-05
6 *536:B0 3.68071e-05
7 *533:B0 3.68071e-05
8 *160:7 5.96339e-05
9 *160:8 0.000105445
10 *160:9 7.14185e-05
11 *160:10 7.14185e-05
12 *160:11 7.43883e-05
13 *160:12 8.2429e-05
14 *160:13 4.18622e-05
15 *160:14 3.30948e-05
16 *160:15 5.58426e-05
17 *160:16 5.40575e-05
18 *160:17 0.000115397
19 *160:18 9.25707e-05
20 *160:19 0.000122332
21 *160:20 0.000100706
22 *160:21 0.000143216
23 *160:22 0.000143216
24 *160:23 9.99006e-05
25 *160:24 5.29517e-05
26 *160:25 9.39767e-05
27 *160:26 9.27919e-05
28 *160:27 0.00103526
29 *160:28 4.04247e-05
30 *160:11 *354:17 7.162e-05
31 *160:12 *354:16 7.162e-05
32 *160:12 *354:17 3.643e-05
33 *160:13 *354:16 3.643e-05
34 *160:14 *354:11 2.512e-05
35 *160:15 *354:14 2.512e-05
36 *160:15 *354:11 3.7e-05
37 *160:16 *354:14 3.7e-05
38 *160:17 *354:10 2.291e-05
39 *160:18 *354:11 2.291e-05
40 *160:19 *354:4 1.81e-05
41 *160:20 *354:5 1.80999951e-05
42 *160:12 *161:32 4.86e-06
43 *160:13 *161:30 4.86e-06
44 *160:23 *161:33 4.979e-05
45 *160:19 *161:31 4.979e-05
46 *160:19 *161:33 0.00013335
47 *160:20 *161:31 0.000133350003

*RES
1 *160:25 *533:B0 1.40005
2 *160:26 *160:25 0.870072
3 *160:10 *702:B1 1.40005
4 *160:24 *160:26 0.124252
5 *160:10 *160:9 0.37291
6 *160:17 *706:A 1.40005
7 *160:17 *160:24 0.248503
8 *160:21 *160:9 1.40005
9 *160:18 *160:17 0.621413
10 *160:22 *160:21 1.11858
11 *160:18 *160:14 0.124252
12 *160:15 *160:22 1.40005
13 *160:15 *160:14 0.248503
14 *160:15 *687:Q 1.40005
15 *160:16 *160:15 0.497162
16 *160 *160:27 10.1914282
17 *160:11 *160:16 1.40005
18 *160:12 *160:27 1.40005
19 *160:12 *160:11 0.745665
20 *160:13 *160:12 0.37291
21 *160:28 *703:A0 0.193298
22 *160:20 *160:13 1.40005
23 *160:19 *160:28 1.40005
24 *160:20 *160:19 1.36708
25 *160:7 *536:B0 1.40005
26 *160:19 *160:23 0.497162
27 *160:8 *160:7 0.621413
28 *160:8 *160:23 0.497162
*END

*D_NET *161 0.00434202

*CONN
*I *673:A I *C 21.605 24.795 *L 0.00172 *D CLKBUFX2
*P *161 O *C 0 27.695 *L 0.05
*I *686:Q O *C 18.995 22.765 *L 0 *D DFFQXL
*I *536:A0 I *C 27.115 29.725 *L 0.00263 *D AOI221X1
*I *533:A0 I *C 27.985 30.015 *L 0.00262 *D OAI221X1

*CAP
1 *673:A 3.67991e-05
2 *161 4.19882e-05
3 *686:Q 3.67991e-05
4 *536:A0 7.57601e-05
5 *533:A0 3.8958e-05
6 *161:5 0.00012082
7 *161:6 0.000107831
8 *161:7 0.00011553
9 *161:8 0.00011553
10 *161:9 4.58896e-05
11 *161:10 8.71601e-05
12 *161:11 8.59611e-05
13 *161:12 6.46377e-05
14 *161:13 6.46377e-05
15 *161:14 0.000142701
16 *161:15 0.000142019
17 *161:16 0.000130341
18 *161:17 5.88402e-05
19 *161:18 0.000130341
20 *161:19 8.72605e-05
21 *161:20 8.72605e-05
22 *161:21 0.000139981
23 *161:22 0.000114269
24 *161:23 0.000139981
25 *161:24 0.000160309
26 *161:25 0.000131121
27 *161:26 0.00014346
28 *161:27 5.125e-05
29 *161:28 6.61587e-05
30 *161:29 4.61702e-05
31 *161:30 7.63478e-05
32 *161:31 0.000193549727
33 *161:32 7.72604e-05
34 *161:33 0.000193549727
35 *161:14 *186:13 0.00010981
36 *161:15 *186:14 0.00010981
37 *161:26 *186:17 3.416e-05
38 *161:24 *186:18 3.416e-05
39 *161:14 *186:15 2.889e-05
40 *161:15 *186:16 2.889001e-05
41 *161:7 *335:11 2.233e-05
42 *161:8 *335:10 2.233e-05
43 *161:9 *335:11 8.56e-06
44 *161:5 *335:10 8.56e-06
45 *161:5 *335:11 1.929e-05
46 *161:6 *335:10 1.929e-05
47 *161:10 *335:8 8.473e-05
48 *161:11 *335:7 8.47299956e-05
49 *161:32 *160:12 4.86e-06
50 *161:30 *160:13 4.86e-06
51 *161:33 *160:23 4.979e-05
52 *161:31 *160:19 4.979e-05
53 *161:33 *160:19 0.00013335
54 *161:31 *160:20 0.000133350003

*RES
1 *536:A0 *533:A0 0.580018
2 *161:33 *536:A0 1.39998
3 *161:31 *161:33 2.6099999
4 *161:32 *161:31 1.39998
5 *161:30 *161:32 0.869987
6 *161:30 *161:7 0.124295
7 *161:12 *673:A 1.39998
8 *161:8 *161:7 1.11858
9 *161:13 *161:12 0.497141
10 *161:9 *161:8 0.124295
11 *161:5 *161:13 1.39998
12 *161:5 *161:9 0.372846
13 *161:6 *161:5 1.11858
14 *161:27 *686:Q 1.39998
15 *161:28 *161:6 1.39998
16 *161:27 *161:28 0.372846
17 *161:28 *161:29 0.372846
18 *161:11 *161:29 0.124295
19 *161:11 *161:10 0.994282
20 *161:14 *161:10 1.39998
21 *161:15 *161:14 1.86427
22 *161:15 *161:26 0.124295
23 *161:24 *161:26 1.61572
24 *161:24 *161:25 0.24859
25 *161:22 *161:25 0.994282
26 *161:22 *161:23 0.124295
27 *161:21 *161:23 1.11858
28 *161:20 *161:21 0.124295
29 *161:19 *161:20 0.745731
30 *161:18 *161:19 0.124295
31 *161:16 *161:18 1.11858
32 *161:16 *161:17 0.124295
33 *161 *161:17 0.372846
*END

*D_NET *162 0.00361433

*CONN
*I *674:A I *C 6.235 30.015 *L 0.00172 *D CLKBUFX2
*P *162 O *C 0 28.275 *L 0.05
*I *685:Q O *C 5.655 27.985 *L 0 *D DFFHQX1
*I *555:A I *C 14.945 29.9525 *L 0.00163 *D INVXL
*I *543:B0 I *C 22.185 32.915 *L 0.00262 *D OAI22X1

*CAP
1 *674:A 3.68023e-05
2 *162 0.000169492
3 *685:Q 6.57012e-05
4 *555:A 3.68023e-05
5 *543:B0 3.992e-05
6 *162:5 8.96633e-05
7 *162:6 8.96633e-05
8 *162:7 4.11514e-05
9 *162:8 4.11514e-05
10 *162:9 8.16088e-05
11 *162:10 8.09315e-05
12 *162:11 0.000194238
13 *162:12 4.65696e-05
14 *162:13 6.26283e-05
15 *162:14 0.00022649
16 *162:15 0.000210431
17 *162:16 0.000366819766
18 *162:17 0.000366819766
19 *162:18 6.43019e-05
20 *162:19 6.43019e-05
21 *162:21 8.60027e-05
22 *162:22 4.0351e-05
23 *162:23 0.00012248
24 *162:24 6.72013e-05
25 *162:25 0.00012248
26 *162:16 *179:5 7.503e-05
27 *162:17 *179:6 7.503e-05
28 *162:16 *179:6 0.00013407
29 *162:17 *179:7 0.00013407
30 *162:14 *179:6 2.058e-05
31 *162:15 *179:7 2.05800019e-05
32 *162:12 *50:19 3.677e-05
33 *162:13 *50:17 3.677e-05
34 *162:13 *50:19 6.252e-05
35 *162:14 *50:17 6.252e-05
36 *162:14 *50:15 3.643e-05
37 *162:15 *50:8 3.643e-05
38 *162:14 *50:16 3.477e-05
39 *162:15 *50:14 3.47700032e-05

*RES
1 *162:21 *685:Q 0.966643
2 *162:8 *162:21 1.4
3 *162:8 *162:7 0.372872
4 *162 *162:11 1.61569
5 *162:11 *162:7 1.4
6 *162:11 *162:22 0.248564
7 *162:22 *162:10 0.124308
8 *162:10 *162:9 0.621436
9 *543:B0 *162:24 0.580018
10 *162:6 *162:9 1.4
11 *162:25 *162:24 1.4
12 *162:5 *674:A 1.4
13 *162:6 *162:5 0.621436
14 *162:23 *162:25 0.621436
15 *162:15 *162:5 1.4
16 *162:16 *162:23 1.4
17 *162:15 *162:14 2.48569
18 *162:17 *162:16 3.48000002
19 *162:14 *162:13 0.87
20 *162:18 *162:17 1.4
21 *162:13 *162:12 0.372872
22 *162:19 *555:A 1.4
23 *162:19 *162:18 0.497128
24 *162:19 *162:12 1.4
25 *162:20 *162:19 0.193074
*END

*D_NET *163 0.00330898

*CONN
*I *680:A I *C 13.485 24.795 *L 0.00178 *D DLY1X1
*P *163 O *C 0 27.405 *L 0.05
*I *684:Q O *C 12.905 22.765 *L 0 *D DFFQXL
*I *568:A I *C 21.015 29.9525 *L 0.00163 *D INVXL
*I *543:A0 I *C 21.025 32.625 *L 0.00264 *D OAI22X1

*CAP
1 *680:A 3.67996e-05
2 *163 0.000537643
3 *684:Q 3.67996e-05
4 *568:A 3.67996e-05
5 *543:A0 3.67996e-05
6 *163:5 0.000170884
7 *163:6 5.94858e-05
8 *163:7 7.80889e-05
9 *163:8 9.25241e-05
10 *163:9 0.000251862
11 *163:10 0.000251862
12 *163:11 0.00014386
13 *163:14 5.46995e-05
14 *163:15 3.38007e-05
15 *163:16 0.000127333
16 *163:17 0.000184692
17 *163:18 0.00055517
18 *163:19 9.11687e-05
19 *163:9 *50:19 0.00011455
20 *163:10 *50:17 0.000114550001
21 *163:9 3.751e-05
22 *163:10 3.751e-05
23 *163:9 0.00011229
24 *163:10 0.000112290003

*RES
1 *163:11 *543:A0 1.40001
2 *163:5 *568:A 1.40001
3 *163:5 *163:11 1.11855
4 *163:6 *163:5 0.372851
5 *163:9 *163:6 1.40001
6 *163:10 *163:9 3.23141
7 *163 *163:18 5.59285736
8 *163:19 *163:10 1.40001
9 *163:17 *163:18 1.40001
10 *163:17 *163:19 0.745703
11 *163:16 *163:17 1.11855
12 *163:14 *684:Q 1.40001
13 *163:15 *163:16 1.40001
14 *163:13 *163:15 0.19304
15 *163:14 *163:8 0.248596
16 *163:7 *680:A 1.40001
17 *163:7 *163:15 1.40001
18 *163:8 *163:7 0.869958
19 *163:12 *163:7 0.19304
*END

*D_NET *164 0.00434017

*CONN
*I *679:A I *C 17.545 6.525 *L 0.00178 *D DLY1X1
*P *164 O *C 37.555 0 *L 0.05
*I *694:Q O *C 35.815 8.555 *L 0 *D DFFQX1
*I *563:A I *C 34.365 17.255 *L 0.00273 *D INVX1

*CAP
1 *679:A 3.68003e-05
2 *164 0.000443889
3 *694:Q 3.68003e-05
4 *563:A 3.68003e-05
5 *164:4 0.000157337
6 *164:5 0.000117457
7 *164:6 0.000140302
8 *164:7 0.000115181
9 *164:8 0.00057163
10 *164:9 0.000570723
11 *164:10 0.000113933
12 *164:11 0.000176151
13 *164:12 9.60349e-05
14 *164:13 0.000155583
15 *164:14 0.000155583
16 *164:15 8.46084e-05
17 *164:16 8.55155e-05
18 *164:17 5.39226e-05
19 *164:18 9.38019e-05
20 *164:20 5.64085e-05
21 *164:21 7.94796e-05
22 *164:22 8.06484e-05
23 *164:23 0.000194207
24 *164:24 0.000194207
25 *164:25 3.24478e-05
26 *164:26 0.000460723

*RES
1 *164:5 *679:A 1.39997
2 *164:5 *164:4 0.994324
3 *164:4 *164:18 0.869994
4 *164:18 *164:17 0.372832
5 *164:16 *164:17 1.39997
6 *164:16 *164:15 0.621413
7 *164:22 *563:A 1.39997
8 *164:15 *164:14 0.124252
9 *164:21 *164:22 0.372832
10 *164:14 *164:13 1.49141
11 *164:21 *164:24 0.124252
12 *164:9 *164:13 0.124252
13 *164:23 *164:24 1.61574
14 *164:9 *164:8 5.09571409
15 *164:20 *164:23 0.124252
16 *164:6 *164:8 1.39997
17 *164:6 *164:20 0.372832
18 *164:7 *164:6 0.745743
19 *164 *164:26 4.10139
20 *164:12 *164:7 1.39997
21 *164:10 *164:26 1.39997
22 *164:12 *164:11 0.621413
23 *164:11 *164:10 0.745743
24 *164:25 *164:11 1.39997
25 *164:25 *694:Q 1.39997
26 *164:19 *164:25 0.193064
*END

*D_NET *165 0.00370713

*CONN
*I *682:A I *C 38.135 22.185 *L 0.00178 *D DLY1X1
*P *165 O *C 36.105 0 *L 0.05
*I *693:Q O *C 32.045 13.775 *L 0 *D DFFQX1
*I *557:A I *C 30.295 17.0275 *L 0.00163 *D INVXL
*I *544:B0 I *C 30.305 14.065 *L 0.00262 *D OAI22X1

*CAP
1 *682:A 3.68012e-05
2 *165 0.00024988
3 *693:Q 3.68012e-05
4 *557:A 3.68012e-05
5 *544:B0 3.68012e-05
6 *165:5 0.000116912
7 *165:6 4.56905e-05
8 *165:7 0.00022457
9 *165:8 0.000295792
10 *165:9 0.000226891
11 *165:10 0.000226891
12 *165:11 0.000266707
13 *165:12 0.000111606
14 *165:13 0.000111606
15 *165:14 5.07273e-05
16 *165:15 5.00513e-05
17 *165:16 0.000212169
18 *165:17 0.000212169
19 *165:18 4.33096e-05
20 *165:19 4.39916e-05
21 *165:20 0.00039203
22 *165:21 0.00039203
23 *165:24 3.24523e-05
24 *165:25 3.24523e-05
25 *165:16 *116:6 3.058e-05
26 *165:17 *116:7 3.058e-05
27 *165:14 *116:6 2.476e-05
28 *165:15 *116:7 2.476e-05
29 *165:18 *116:20 3.727e-05
30 *165:19 *116:18 3.727e-05
31 *165:16 *116:4 1.839e-05
32 *165:17 *116:5 1.83900005e-05

*RES
1 *165:25 *682:A 1.39998
2 *165:23 *165:25 0.19304
3 *165:14 *165:25 1.39998
4 *165:15 *165:14 0.37288
5 *165:15 *165:16 0.124312
6 *165:17 *165:16 2.60999
7 *165:18 *165:17 0.124312
8 *165:19 *165:18 0.37288
9 *165 *165:11 2.48573
10 *165:7 *165:19 1.39998
11 *165:9 *165:11 1.39998
12 *165:6 *544:B0 1.39998
13 *165:8 *557:A 1.39998
14 *165:8 *165:7 2.23717
15 *165:10 *165:9 1.73997
16 *165:6 *165:5 0.248568
17 *165:5 *165:8 0.870015
18 *165:21 *165:10 1.39998
19 *165:13 *165:5 1.39998
20 *165:21 *165:20 3.72857141
21 *165:13 *165:12 0.745703
22 *165:12 *165:20 1.39998
23 *165:24 *165:12 1.39998
24 *165:24 *693:Q 1.39998
25 *165:22 *165:24 0.19304
*END

*D_NET *166 0.00402229

*CONN
*I *676:A I *C 65.685 11.745 *L 0.00178 *D DLY1X1
*P *166 O *C 43.645 0 *L 0.05
*I *692:Q O *C 48.285 8.555 *L 0 *D DFFHQX1
*I *573:A I *C 51.775 11.8075 *L 0.00163 *D INVXL
*I *538:B0 I *C 49.5575 11.6725 *L 0.00163 *D AOI222XL

*CAP
1 *676:A 3.6803e-05
2 *166 4.14709e-05
3 *692:Q 3.6803e-05
4 *573:A 6.41421e-05
5 *538:B0 3.6803e-05
6 *166:5 5.82988e-05
7 *166:6 5.82988e-05
8 *166:7 0.000241456
9 *166:8 0.000242342
10 *166:9 0.00012927
11 *166:10 7.25588e-05
12 *166:11 0.000176946
13 *166:12 0.000176946
14 *166:13 5.71291e-05
15 *166:14 5.71291e-05
16 *166:15 5.82988e-05
17 *166:16 5.94797e-05
18 *166:17 0.000144577
19 *166:18 5.88002e-05
20 *166:19 0.000144577
21 *166:20 5.88391e-05
22 *166:21 0.000129153
23 *166:22 5.95243e-05
24 *166:23 0.000139609
25 *166:24 7.30713e-05
26 *166:25 6.99408e-05
27 *166:26 3.86189e-05
28 *166:27 4.22173e-05
29 *166:28 8.07416e-05
30 *166:29 8.44403e-05
31 *166:30 4.278e-05
32 *166:31 0.00036505
33 *166:32 0.000192738
34 *166:33 0.00036505
35 *166:34 0.000192738
36 *166:35 6.73784e-05
37 *166:36 6.82585e-05

*RES
1 *166:5 *676:A 1.39999
2 *166:6 *166:5 0.372865
3 *166:36 *166:6 1.39999
4 *166:35 *166:36 0.49712
5 *166:34 *166:35 0.124305
6 *166:32 *166:34 1.86427
7 *166:32 *166:33 0.124305
8 *166:31 *166:33 3.23142862
9 *166:31 *166:7 0.124305
10 *166:29 *573:A 0.966677
11 *166:8 *166:7 0.99429
12 *166:30 *166:29 1.39999
13 *166:28 *166:8 1.39999
14 *166:28 *166:30 0.24856
15 *166:27 *538:B0 1.39999
16 *166:9 *166:28 0.372865
17 *166:9 *166:27 0.24856
18 *166:10 *166:9 0.49712
19 *166:26 *166:10 0.124305
20 *166:25 *166:26 0.24856
21 *166:24 *166:25 0.372865
22 *166:23 *166:24 0.372865
23 *166:23 *692:Q 1.39999
24 *166:21 *166:23 1.11859
25 *166:22 *166:21 1.39999
26 *166:20 *166:22 0.372865
27 *166:19 *166:20 0.124305
28 *166:17 *166:19 1.24285
29 *166:17 *166:18 0.124305
30 *166:16 *166:18 0.372865
31 *166:15 *166:16 1.39999
32 *166:14 *166:15 0.372865
33 *166 *166:13 0.372865
34 *166:12 *166:14 0.124305
35 *166:11 *166:13 0.124305
36 *166:11 *166:12 1.61571
*END

*D_NET *167 0.00437626

*CONN
*I *683:A I *C 43.065 22.185 *L 0.00178 *D DLY1X1
*P *167 O *C 45.965 0 *L 0.05
*I *691:Q O *C 48.575 13.775 *L 0 *D DFFQXL
*I *562:A I *C 52.355 19.5125 *L 0.00163 *D INVXL
*I *538:A0 I *C 51.185 12.035 *L 0.00155 *D AOI222XL

*CAP
1 *683:A 3.67983e-05
2 *167 0.000517046
3 *691:Q 3.67983e-05
4 *562:A 3.9684e-05
5 *538:A0 3.67983e-05
6 *167:5 0.000358652
7 *167:6 0.000358652
8 *167:7 6.80854e-05
9 *167:8 6.80854e-05
10 *167:9 0.00053271
11 *167:10 5.66972e-05
12 *167:11 5.60225e-05
13 *167:12 5.91765e-05
14 *167:13 5.91765e-05
15 *167:14 8.2026e-05
16 *167:15 0.000327746
17 *167:16 0.000279536
18 *167:17 0.000102949
19 *167:18 0.000102949
20 *167:19 3.90987e-05
21 *167:20 0.000134781
22 *167:21 8.29771e-05
23 *167:22 0.000174489
24 *167:23 8.29771e-05
25 *167:24 8.52287e-05
26 *167:25 4.48375e-05
27 *167:26 5.99812e-05
28 *167:14 *25:6 7.453e-05
29 *167:15 *25:7 7.453e-05
30 *167:15 *25:18 6.214e-05
31 *167:16 *25:19 6.214e-05
32 *167:15 *25:6 0.00010947
33 *167:16 *25:7 0.000109469998

*RES
1 *167:13 *538:A0 1.4
2 *167 *167:9 5.34428549
3 *167:13 *167:12 0.248556
4 *167:9 *167:19 0.124278
5 *167:23 *691:Q 1.4
6 *167:10 *167:12 1.4
7 *167:20 *167:19 1.4
8 *167:21 *167:23 0.372834
9 *167:11 *167:10 0.372834
10 *167:26 *562:A 0.579965
11 *167:20 *167:22 0.994307
12 *167:22 *167:21 1.4
13 *167:11 *167:25 0.124278
14 *167:8 *167:26 1.4
15 *167:22 *167:24 0.497112
16 *167:24 *167:25 0.248556
17 *167:8 *167:7 0.372834
18 *167:6 *167:24 1.4
19 *167:14 *167:7 1.4
20 *167:6 *167:5 3.23139
21 *167:15 *167:14 0.74575
22 *167:15 *167:5 1.4
23 *167:18 *683:A 1.4
24 *167:16 *167:15 2.85856
25 *167:17 *167:18 0.74575
26 *167:17 *167:16 1.4
*END

*D_NET *168 0.00255408

*CONN
*I *672:A I *C 52.925 22.185 *L 0.00172 *D CLKBUFX2
*P *168 O *C 51.185 0 *L 0.05
*I *690:Q O *C 53.795 17.545 *L 0 *D DFFQX1
*I *546:A I *C 54.955 16.675 *L 0.00149 *D XOR2XL

*CAP
1 *672:A 3.67999e-05
2 *168 0.000658201
3 *690:Q 3.67999e-05
4 *546:A 3.67999e-05
5 *168:4 0.00021221
6 *168:5 0.000242277
7 *168:6 0.000148468
8 *168:7 0.000118411
9 *168:8 0.000135651
10 *168:9 0.000104151
11 *168:11 0.00067573
12 *168:12 4.16357e-05
13 *168:13 6.53097e-05
14 *168:14 4.16357e-05

*RES
1 *168:14 *546:A 1.40002
2 *168 *168:11 6.71142864
3 *168:12 *168:14 0.248545
4 *168:4 *672:A 1.40002
5 *168:9 *168:11 1.40002
6 *168:13 *168:12 1.40002
7 *168:5 *168:4 1.36715
8 *168:9 *168:8 1.11861
9 *168:8 *168:13 0.497192
10 *168:5 *168:6 0.372869
11 *168:7 *168:8 1.40002
12 *168:7 *168:6 1.24283
13 *168:7 *690:Q 1.40002
14 *168:10 *168:7 0.19304
*END

*D_NET *169 0.0033156

*CONN
*I *669:A I *C 41.615 27.405 *L 0.00172 *D CLKBUFX2
*P *169 O *C 44.225 0 *L 0.05
*I *689:Q O *C 42.485 27.985 *L 0 *D DFFQX1
*I *545:A I *C 39.295 25.085 *L 0.00154 *D CLKXOR2X1

*CAP
1 *669:A 3.6801e-05
2 *169 0.000463096
3 *689:Q 3.6801e-05
4 *545:A 3.6801e-05
5 *169:4 0.000479921
6 *169:5 4.4187e-05
7 *169:6 4.4187e-05
8 *169:7 0.000140939
9 *169:8 0.000140939
10 *169:9 0.00014425
11 *169:10 8.92905e-05
12 *169:11 0.000117062
13 *169:12 0.000117062
14 *169:13 8.94042e-05
15 *169:14 5.92543e-05
16 *169:15 0.00049645
17 *169:16 0.00049645
18 *169:17 4.16417e-05
19 *169:16 *136:12 0.00011492
20 *169:15 *136:13 0.00011492
21 *169:4 *136:14 5.62e-06
22 *169 *136:15 5.61999307e-06

*RES
1 *169 *169:4 4.47428
2 *169:11 *169:4 1.39997
3 *169:14 *669:A 1.39997
4 *169:12 *169:11 0.745699
5 *169:13 *169:14 0.621387
6 *169:17 *689:Q 1.39997
7 *169:15 *169:12 1.39997
8 *169:13 *169:9 0.37285
9 *169:9 *169:17 0.248537
10 *169:15 *169:16 5.71714306
11 *169:10 *169:9 0.745699
12 *169:7 *169:16 1.39997
13 *169:7 *169:10 1.39997
14 *169:5 *545:A 1.39997
15 *169:8 *169:7 1.36717
16 *169:6 *169:5 0.37285
17 *169:6 *169:8 1.39997
*END

*D_NET *170 0.00789022

*CONN
*I *681:A I *C 8.845 55.825 *L 0.00155 *D DLY2X1
*P *170 O *C 73.37 36.105 *L 0.05
*I *700:Q O *C 66.265 38.425 *L 0 *D DFFQX1
*I *548:A I *C 52.925 37.555 *L 0.00149 *D XOR2XL

*CAP
1 *681:A 3.68169e-05
2 *170 0.000293455
3 *700:Q 3.68169e-05
4 *548:A 3.68169e-05
5 *170:4 3.1568e-05
6 *170:5 3.1568e-05
7 *170:6 0.000126905
8 *170:7 0.000126905
9 *170:8 6.8571e-05
10 *170:9 6.8571e-05
11 *170:10 0.000694086
12 *170:11 0.000694086
13 *170:12 4.30337e-05
14 *170:13 4.30337e-05
15 *170:14 0.000666129
16 *170:15 0.00243963
17 *170:16 0.0018073
18 *170:17 0.000310989
19 *170:22 3.38015e-05
20 *170:23 6.69702e-05
21 *170:24 3.24614e-05
22 *170:25 3.38015e-05
23 *170:26 9.999e-05
24 *170:27 6.68586e-05

*RES
1 *170:5 *548:A 1.4
2 *170:19 *170:5 0.0642745
3 *170:5 *170:4 0.124339
4 *170:17 *170 2.85867
5 *170:20 *170:24 0.193104
6 *170:24 *700:Q 1.4
7 *170:8 *170:4 1.4
8 *170:23 *170:17 1.4
9 *170:21 *170:25 0.193104
10 *170:25 *170:24 1.4
11 *170:9 *170:8 0.497075
12 *170:23 *170:26 0.497075
13 *170:26 *170:25 1.4
14 *170:13 *170:9 1.4
15 *170:26 *170:27 0.497075
16 *170:13 *170:12 0.248678
17 *170:14 *170:27 1.4
18 *170:15 *170:12 1.4
19 *170:15 *170:14 6.21441
20 *170:16 *170:15 18.3942852
21 *170:6 *681:A 1.4
22 *170:11 *170:16 1.4
23 *170:7 *170:6 0.621413
24 *170:11 *170:10 6.83583
25 *170:22 *170:7 1.4
26 *170:22 *170:10 1.4
27 *170:18 *170:22 0.193104
*END

*D_NET *171 0.00268356

*CONN
*I *670:A I *C 67.425 27.405 *L 0.00172 *D CLKBUFX2
*P *171 O *C 73.37 24.215 *L 0.05
*I *699:Q O *C 65.975 22.765 *L 0 *D DFFQXL
*I *547:A I *C 57.565 19.865 *L 0.00149 *D XOR2XL

*CAP
1 *670:A 3.68044e-05
2 *171 0.000223239
3 *699:Q 3.68044e-05
4 *547:A 3.68044e-05
5 *171:4 0.00025767
6 *171:5 0.00025767
7 *171:6 0.000182801
8 *171:7 0.000215688
9 *171:8 0.000321339668
10 *171:9 0.000321339668
11 *171:10 7.95026e-05
12 *171:11 7.95026e-05
13 *171:12 6.53467e-05
14 *171:13 7.89681e-05
15 *171:14 0.000285928
16 *171:8 *25:8 3.751e-05
17 *171:9 *25:9 3.751e-05
18 *171:8 *25:10 6.457e-05
19 *171:9 *25:11 6.45700037e-05

*RES
1 *171:4 *670:A 1.4
2 *171:5 *171:4 1.36712
3 *171:14 *171:5 1.4
4 *171:14 *171 2.36141
5 *171:13 *171:14 0.621412
6 *171:6 *171:13 1.4
7 *171:7 *171:6 0.994291
8 *171:7 *699:Q 1.4
9 *171:12 *171:7 0.37288
10 *171:8 *171:12 1.4
11 *171:9 *171:8 3.60428572
12 *171:11 *171:9 1.4
13 *171:10 *171:11 0.497118
14 *547:A *171:10 1.4
*END

*D_NET *172 0.00558556

*CONN
*I *675:A I *C 65.685 43.065 *L 0.00178 *D DLY1X1
*P *172 O *C 73.37 26.825 *L 0.05
*I *698:Q O *C 56.405 24.215 *L 0 *D DFFHQX1
*I *550:A I *C 42.775 30.305 *L 0.00149 *D XOR2XL

*CAP
1 *675:A 3.6801e-05
2 *172 0.000105748
3 *698:Q 3.6801e-05
4 *550:A 3.6801e-05
5 *172:4 5.40592e-05
6 *172:5 5.40592e-05
7 *172:6 0.000359794
8 *172:7 0.000404049
9 *172:8 0.000701149
10 *172:9 0.000685329
11 *172:10 0.000318788
12 *172:11 0.000245143
13 *172:12 0.000109695
14 *172:13 0.00070293
15 *172:14 0.00070293
16 *172:15 5.8135e-05
17 *172:16 5.7277e-05
18 *172:17 0.000140822
19 *172:18 0.000140822
20 *172:19 5.44989e-05
21 *172:20 5.53463e-05
22 *172:22 0.000246066
23 *172:23 0.000246066
24 *172:24 3.24462e-05

*RES
1 *172:23 *550:A 1.40005
2 *172:22 *172:23 1.49138
3 *172:9 *172:22 1.40005
4 *172:9 *172:8 5.09574
5 *172:5 *698:Q 1.40005
6 *172:12 *172:8 0.248617
7 *172:5 *172:4 0.372872
8 *172:12 *172:7 0.745745
9 *172:7 *172:4 1.40005
10 *172:7 *172:6 3.48
11 *172:6 *172:11 0.248617
12 *172:11 *172:10 2.48574
13 *172:10 *172 1.11862
14 *172:14 *172:10 1.40005
15 *172:14 *172:13 6.96000004
16 *172:15 *172:13 1.40005
17 *172:16 *172:15 0.372872
18 *172:16 *172:17 0.124255
19 *172:18 *172:17 1.24287
20 *172:19 *172:18 0.124255
21 *172:20 *172:19 0.372872
22 *172:24 *675:A 1.40005
23 *172:24 *172:20 1.40005
24 *172:21 *172:24 0.193074
*END

*D_NET *173 0.00320841

*CONN
*I *678:A I *C 64.235 30.015 *L 0.00178 *D DLY1X1
*P *173 O *C 73.37 31.755 *L 0.05
*I *697:Q O *C 63.365 29.435 *L 0 *D DFFQX1
*I *559:A I *C 51.185 32.915 *L 0.00273 *D INVX1
*I *539:C1 I *C 48.865 34.945 *L 0.00176 *D AOI222XL

*CAP
1 *678:A 3.67984e-05
2 *173 0.000334837
3 *697:Q 3.67984e-05
4 *559:A 3.67984e-05
5 *539:C1 3.67984e-05
6 *173:5 5.4049e-05
7 *173:6 8.59197e-05
8 *173:7 7.35047e-05
9 *173:8 7.17889e-05
10 *173:9 0.000402571
11 *173:10 0.00046466
12 *173:11 9.5052e-05
13 *173:13 9.87531e-05
14 *173:14 9.87531e-05
15 *173:15 3.24521e-05
16 *173:16 3.69686e-05
17 *173:17 0.000352372
18 *173:18 3.78194e-05
19 *173:19 7.04204e-05
20 *173:18 *189:10 4.23e-06
21 *173:16 *189:11 4.23e-06
22 *173 *189:10 3.424e-05
23 *173:17 *189:11 3.424e-05
24 *173 *189 5.993e-05
25 *173:17 *189:12 5.993e-05
26 *173:9 *189:8 1.979e-05
27 *173:10 *189:9 1.979e-05
28 *173:18 *189:8 2.17e-06
29 *173:16 *189:9 2.17e-06
30 *173:6 *189:6 4.36e-06
31 *173:7 *189:7 4.35999521e-06
32 *173:9 *312:32 5.998e-05
33 *173:10 *312:21 5.998e-05
34 *173:9 *312:21 0.00019095
35 *173:10 *312:22 0.00019095

*RES
1 *173:19 *678:A 1.40002
2 *173:8 *173:19 0.37284
3 *173:17 *173 4.10146
4 *173:8 *173:7 0.248585
5 *173:7 *697:Q 1.40002
6 *173:6 *173:17 1.40002
7 *173:7 *173:6 0.497169
8 *173:6 *173:5 0.37284
9 *173:14 *539:C1 1.40002
10 *173:18 *173:5 1.40002
11 *173:13 *173:14 0.870009
12 *173:16 *173:18 0.37284
13 *173:11 *173:13 1.40002
14 *173:16 *173:9 0.124255
15 *173:11 *173:10 0.994265
16 *173:10 *173:9 4.8471427
17 *173:15 *559:A 1.40002
18 *173:15 *173:10 1.40002
19 *173:12 *173:15 0.19304
*END

*D_NET *174 0.00376904

*CONN
*I *671:A I *C 52.055 40.455 *L 0.00172 *D CLKBUFX2
*P *174 O *C 73.37 41.905 *L 0.05
*I *696:Q O *C 46.255 43.645 *L 0 *D DFFQXL
*I *569:A I *C 50.025 38.135 *L 0.00273 *D INVX1
*I *535:A0 I *C 50.55 38.1475 *L 0.00263 *D AOI211X1

*CAP
1 *671:A 3.67992e-05
2 *174 2.73994e-05
3 *696:Q 3.67992e-05
4 *569:A 2.56563e-05
5 *535:A0 5.29398e-05
6 *174:5 0.000186379
7 *174:6 0.000186379
8 *174:7 0.00030542
9 *174:8 0.00036151
10 *174:9 7.76197e-05
11 *174:10 0.000101742
12 *174:11 0.000113106
13 *174:12 5.78714e-05
14 *174:13 6.83358e-05
15 *174:14 4.40807e-05
16 *174:15 0.000118871
17 *174:16 0.000118871
18 *174:18 3.24468e-05
19 *174:19 7.24178e-05
20 *174:20 7.96e-05
21 *174:21 9.8394e-05
22 *174:22 5.12463e-05
23 *174:23 6.20141e-05
24 *174:23 *101:6 6.252e-05
25 *174:19 *101:7 6.252e-05
26 *174:19 *101:6 3.751e-05
27 *174:9 *101:7 3.751e-05
28 *174:9 *101:6 6.134e-05
29 *174:10 *101:7 6.134e-05
30 *174:10 *101:8 2.337e-05
31 *174:13 *101:9 2.337e-05
32 *174:8 *101:6 1.754e-05
33 *174:11 *101:7 1.754e-05
34 *174:11 *101:6 1.364e-05
35 *174:12 *101:7 1.36400143e-05
36 *174 *192 1.459e-05
37 *174:14 *192:20 1.459e-05
38 *174:7 *192:18 3.309e-05
39 *174:8 *192:16 3.309e-05
40 *174:7 *192:9 7.887e-05
41 *174:8 *192:8 7.887e-05
42 *174:7 *192:15 3.751e-05
43 *174:8 *192:14 3.751e-05
44 *174:7 *192:14 0.00011229
45 *174:8 *192:10 0.00011229
46 *174:15 *192 2.283e-05
47 *174:16 *192:20 2.283e-05
48 *174:15 *192:19 9.73e-06
49 *174:16 *192:17 9.73000703e-06
50 *174:7 *78:8 0.00016077
51 *174:8 *78:9 0.00016077
52 *174:9 *78:12 7.62e-06
53 *174:10 *78:13 7.62e-06
54 *174:7 *78:10 1.467e-05
55 *174:8 *78:11 1.467e-05
56 *174:8 *78:10 5.37e-06
57 *174:11 *78:11 5.37e-06
58 *174:11 *78:10 1.33e-05
59 *174:12 *78:11 1.3300007e-05

*RES
1 *174:14 *174 0.37285
2 *174:15 *174:14 0.124312
3 *174:16 *174:15 1.36717
4 *174:16 *174:7 0.124312
5 *174:8 *174:7 5.71714306
6 *174:11 *174:8 0.870011
7 *174:20 *671:A 1.39997
8 *174:12 *174:11 0.621387
9 *569:A *535:A0 0.386633
10 *174:20 *174:21 0.621387
11 *174:21 *174:12 1.39997
12 *174:6 *535:A0 1.39997
13 *174:21 *174:22 0.37285
14 *174:6 *174:5 1.98856
15 *174:23 *174:22 1.39997
16 *174:19 *174:5 1.39997
17 *174:19 *174:23 0.621387
18 *174:9 *174:19 0.37285
19 *174:10 *174:9 0.870011
20 *174:13 *174:10 0.621387
21 *174:18 *174:13 1.39997
22 *174:18 *696:Q 1.39997
23 *174:17 *174:18 0.193055
*END

*D_NET *175 0.00310976

*CONN
*I *677:A I *C 64.525 48.285 *L 0.00184 *D DLY1X4
*P *175 O *C 73.37 45.385 *L 0.05
*I *695:Q O *C 53.215 43.645 *L 0 *D DFFHQX1
*I *549:A I *C 55.245 40.745 *L 0.00149 *D XOR2XL

*CAP
1 *677:A 3.67974e-05
2 *175 0.000340738
3 *695:Q 3.67974e-05
4 *549:A 3.67974e-05
5 *175:4 0.00014831
6 *175:5 0.000170178
7 *175:6 0.000254777
8 *175:7 0.000254777
9 *175:8 5.43296e-05
10 *175:9 9.11816e-05
11 *175:10 0.000186775
12 *175:11 6.54382e-05
13 *175:12 0.000101738
14 *175:13 8.04884e-05
15 *175:14 5.47614e-05
16 *175:15 9.63095e-05
17 *175:16 0.000105188
18 *175:17 8.93721e-05
19 *175:18 0.00035827
20 *175:15 *140:172 8.456e-05
21 *175:13 *140:173 8.456e-05
22 *175:6 *140:177 2.927e-05
23 *175:7 *140:172 2.927e-05
24 *175:6 *140:172 1.429e-05
25 *175:7 *140:173 1.42899976e-05
26 *175:9 *303:4 0.00010004
27 *175:10 *303:5 0.00010004
28 *175:10 *303:4 3.7e-05
29 *175:11 *303:5 3.7e-05
30 *175:10 *303:12 8.21e-06
31 *175:11 *303:11 8.20999582e-06

*RES
1 *175:18 *175 3.60428572
2 *175:4 *677:A 1.4
3 *175:5 *175:18 1.4
4 *175:5 *175:4 1.24288
5 *175:8 *175:5 0.37288
6 *175:17 *175:8 1.4
7 *175:16 *175:17 0.745705
8 *175:6 *175:16 0.248587
9 *175:7 *175:6 2.60999
10 *175:7 *175:15 0.248587
11 *175:14 *549:A 1.4
12 *175:13 *175:15 0.869998
13 *175:11 *175:14 0.248587
14 *175:9 *175:13 1.4
15 *175:11 *175:10 0.621412
16 *175:10 *175:9 0.994291
17 *175:12 *175:10 0.621412
18 *695:Q *175:12 1.4
*END

*D_NET *176 0.00649594

*CONN
*I *589:A I *C 45.385 45.385 *L 0.00155 *D DLY2X1
*P *176 O *C 0 32.625 *L 0.05
*I *597:Q O *C 32.335 33.205 *L 0 *D DFFQX1
*I *570:A I *C 34.655 29.725 *L 0.00273 *D INVX1

*CAP
1 *589:A 3.68036e-05
2 *176 4.45763e-05
3 *597:Q 3.68036e-05
4 *570:A 1.28172e-05
5 *176:4 0.000112993
6 *176:5 0.000112993
7 *176:6 0.000163328
8 *176:7 8.463e-05
9 *176:8 6.14309e-05
10 *176:9 0.000599981445
11 *176:10 0.000599981445
12 *176:11 0.000514784
13 *176:12 0.000514784
14 *176:13 0.000162439
15 *176:14 0.000162439
16 *176:15 0.000197055
17 *176:16 0.000196368
18 *176:17 0.000190765
19 *176:18 0.000190765
20 *176:19 0.000150611
21 *176:20 0.000150611
22 *176:21 0.000177692
23 *176:22 0.000256389
24 *176:24 3.24549e-05
25 *176:25 4.00995e-05
26 *176:26 0.000444546
27 *176:27 0.000444546
28 *176:9 *118:2 0.00040162
29 *176:10 *118:3 0.000401620004

*RES
1 *176:19 *589:A 1.40005
2 *176:20 *176:19 1.24287
3 *176 *176:8 0.372872
4 *176:17 *176:20 1.40005
5 *176:8 *176:14 0.124255
6 *176:18 *176:17 1.61574
7 *176:14 *176:13 1.36713
8 *176:27 *176:18 1.40005
9 *176:12 *176:13 0.124255
10 *176:26 *176:27 4.35
11 *176:12 *176:11 4.35
12 *176:25 *570:A 0.193286
13 *176:15 *176:26 1.40005
14 *176:10 *176:11 0.124255
15 *176:5 *176:25 1.40005
16 *176:16 *176:15 1.61574
17 *176:10 *176:9 6.96000004
18 *176:5 *176:4 0.994255
19 *176:21 *176:16 0.124255
20 *176:7 *176:9 0.124255
21 *176:22 *176:4 1.40005
22 *176:22 *176:21 1.49138
23 *176:7 *176:6 0.621383
24 *176:6 *176:22 0.87
25 *176:24 *176:6 1.40005
26 *176:24 *597:Q 1.40005
27 *176:23 *176:24 0.193074
*END

*D_NET *177 0.0045335

*CONN
*I *584:A I *C 8.555 24.505 *L 0.00155 *D DLY2X1
*P *177 O *C 0 34.655 *L 0.05
*I *596:Q O *C 26.245 34.655 *L 0 *D DFFQX1
*I *571:A I *C 26.245 32.915 *L 0.00273 *D INVX1

*CAP
1 *584:A 3.6798e-05
2 *177 0.000217748
3 *596:Q 3.6798e-05
4 *571:A 3.6798e-05
5 *177:4 9.65503e-05
6 *177:5 9.65503e-05
7 *177:6 0.000368616
8 *177:7 0.000368616
9 *177:8 0.000505113
10 *177:9 0.00070658
11 *177:8 *178:6 4.272e-05
12 *177:9 *178 4.272e-05
13 *177:8 *178:7 9.433e-05
14 *177:9 *178:8 9.433e-05
15 *177:8 *178:8 8.457e-05
16 *177:9 *178:9 8.457e-05
17 *177:9 *178:6 7.447e-05
18 *177 *178 7.44700117e-05
19 *177:8 *180:18 3.796e-05
20 *177:9 *180:15 3.796e-05
21 *177:8 *180:15 0.00015319
22 *177:9 *180:16 0.00015319
23 *177:9 *180:15 1.882e-05
24 *177 *180:16 1.882e-05
25 *177:9 *180:16 3.995e-05
26 *177 *180:17 3.995e-05
27 *177:9 *180:21 4.281e-05
28 *177 *180 4.28099971e-05
29 *177:6 *50:9 0.0002082
30 *177:7 *50:7 0.000208200001
31 *177:6 *118:14 0.00023464
32 *177:7 *118:12 0.00023464

*RES
1 *177:5 *571:A 1.4
2 *177:7 *584:A 1.4
3 *177:5 *177:4 0.745695
4 *177:4 *596:Q 1.4
5 *177:7 *177:6 4.35004
6 *177:8 *177:4 1.4
7 *177:9 *177:6 1.4
8 *177:9 *177:8 7.58142853
9 *177 *177:9 3.47999
*END

*D_NET *178 0.00550169

*CONN
*I *588:A I *C 31.465 19.285 *L 0.00155 *D DLY2X1
*P *178 O *C 0 35.525 *L 0.05
*I *608:Q O *C 18.995 34.655 *L 0 *D DFFQX1
*I *565:A I *C 25.375 32.915 *L 0.00273 *D INVX1

*CAP
1 *588:A 3.67959e-05
2 *178 0.000477796
3 *608:Q 3.67959e-05
4 *565:A 3.67959e-05
5 *178:4 0.000154709
6 *178:5 0.000154709
7 *178:6 0.00049465
8 *178:7 0.00020965
9 *178:8 0.000436758
10 *178:9 0.000260243
11 *178:10 4.61402e-05
12 *178:11 4.61402e-05
13 *178:13 3.14595e-05
14 *178:14 3.14595e-05
15 *178:15 0.000429912
16 *178:16 0.000429912
17 *178:17 5.99377e-05
18 *178:18 5.90546e-05
19 *178:19 5.56278e-05
20 *178:20 0.000143908
21 *178:21 0.000121211
22 *178:22 3.24559e-05
23 *178:23 3.27427e-05
24 *178:24 3.39126e-05
25 *178:25 7.68147e-05
26 *178:26 7.56373e-05
27 *178:6 *177:8 4.272e-05
28 *178 *177:9 4.272e-05
29 *178:7 *177:8 9.433e-05
30 *178:8 *177:9 9.433e-05
31 *178:8 *177:8 8.457e-05
32 *178:9 *177:9 8.457e-05
33 *178:6 *177:9 7.447e-05
34 *178 *177 7.44700117e-05
35 *178:4 *116:19 7.329e-05
36 *178:5 *116:17 7.329e-05
37 *178:4 *116:20 7.387e-05
38 *178:5 *116:18 7.38700021e-05
39 *178:4 *139:137 9.91e-05
40 *178:5 *139:138 9.91e-05
41 *178:4 *139:138 0.00017083
42 *178:5 *139:139 0.00017083
43 *178:26 *139:147 2.714e-05
44 *178:25 *139:148 2.714e-05
45 *178:24 *139:147 2.97e-06
46 *178:23 *139:148 2.97e-06
47 *178:14 *139:267 4.94e-06
48 *178:13 *139:268 4.94000958e-06

*RES
1 *178:25 *588:A 1.40001
2 *178:25 *178:26 0.745703
3 *178:23 *178:26 0.124255
4 *178:23 *178:24 0.248596
5 *178:4 *178:24 1.40001
6 *178:5 *178:4 2.7343
7 *178:17 *178:5 1.40001
8 *178 *178:6 5.59285736
9 *178:14 *608:Q 1.40001
10 *178:17 *178:18 0.372851
11 *178:9 *178:6 0.124255
12 *178:13 *178:14 0.248596
13 *178:15 *178:18 0.124255
14 *178:9 *178:8 2.36145
15 *178:8 *178:13 1.40001
16 *178:15 *178:16 4.10145
17 *178:8 *178:7 2.4857
18 *178:16 *178:19 0.124255
19 *178:21 *178:7 1.40001
20 *178:19 *178:20 0.372851
21 *178:20 *178:21 0.994299
22 *178:11 *178:20 1.40001
23 *178:11 *178:10 0.248596
24 *178:22 *565:A 1.40001
25 *178:22 *178:10 1.40001
26 *178:12 *178:22 0.19304
*END

*D_NET *179 0.00410176

*CONN
*I *591:A I *C 7.685 38.135 *L 0.00155 *D DLY2X1
*P *179 O *C 0 32.045 *L 0.05
*I *612:Q O *C 7.105 33.205 *L 0 *D DFFQX1
*I *556:A I *C 19.865 32.915 *L 0.00273 *D INVX1
*I *540:B0 I *C 18.705 29.725 *L 0.00262 *D OAI22X1

*CAP
1 *591:A 3.68017e-05
2 *179 5.37384e-05
3 *612:Q 3.68017e-05
4 *556:A 3.68017e-05
5 *540:B0 2.56604e-05
6 *179:5 5.52191e-05
7 *179:6 0.00031004
8 *179:7 0.000287951
9 *179:9 0.000220356
10 *179:10 0.000104293
11 *179:11 0.000203509
12 *179:12 0.000119309
13 *179:13 0.00020192
14 *179:14 0.00012966
15 *179:15 0.000216411
16 *179:16 5.9652e-05
17 *179:17 0.00016271
18 *179:18 0.000148219
19 *179:19 4.59608e-05
20 *179:20 8.7271e-05
21 *179:21 8.7271e-05
22 *179:22 8.597e-05
23 *179:23 8.597e-05
24 *179:5 *118:2 2.919e-05
25 *179:6 *118:3 2.919e-05
26 *179:6 *118:6 0.00039126
27 *179:7 *118:7 0.000391260008
28 *179:5 *162:16 7.503e-05
29 *179:6 *162:17 7.503e-05
30 *179:6 *162:16 0.00013407
31 *179:7 *162:17 0.00013407
32 *179:6 *162:14 2.058e-05
33 *179:7 *162:15 2.05800019e-05

*RES
1 *179:19 *540:B0 0.386694
2 *179:23 *556:A 1.39999
3 *179:20 *179:19 1.39999
4 *179:22 *179:23 0.621413
5 *179 *179:10 0.621413
6 *179:20 *179:21 0.621413
7 *179:5 *179:22 1.39999
8 *179:9 *179:10 0.372834
9 *179:6 *179:21 1.39999
10 *179:6 *179:5 0.745737
11 *179:9 *179:11 1.73998
12 *179:7 *179:6 4.4742856
13 *179:18 *591:A 1.39999
14 *179:11 *179:12 0.248579
15 *179:7 *179:16 0.124255
16 *179:17 *179:18 0.745737
17 *179:12 *179:14 0.497158
18 *179:14 *179:16 0.248579
19 *179:15 *179:17 0.248579
20 *179:13 *179:14 1.39999
21 *179:13 *179:15 1.98856
22 *179:13 *612:Q 1.39999
23 *179:8 *179:13 0.193074
*END

*D_NET *180 0.00403279

*CONN
*I *587:A I *C 7.685 43.355 *L 0.00155 *D DLY2X1
*P *180 O *C 0 33.785 *L 0.05
*I *603:Q O *C 7.395 34.655 *L 0 *D DFFQX1
*I *560:A I *C 18.125 34.945 *L 0.00273 *D INVX1
*I *540:A0 I *C 19.865 30.015 *L 0.00264 *D OAI22X1

*CAP
1 *587:A 3.67969e-05
2 *180 0.000158415
3 *603:Q 3.67969e-05
4 *560:A 3.67969e-05
5 *540:A0 3.67969e-05
6 *180:5 0.000123939
7 *180:6 0.000122767
8 *180:7 0.000133308
9 *180:8 0.000148969
10 *180:9 0.00013916
11 *180:10 0.000137988
12 *180:11 0.00018521
13 *180:12 0.00018521
14 *180:13 0.000101191
15 *180:14 6.36003e-05
16 *180:15 0.000495832
17 *180:16 0.00050534
18 *180:17 0.000115858
19 *180:18 0.000107036
20 *180:19 8.53761e-05
21 *180:20 8.53761e-05
22 *180:21 0.000175263
23 *180:22 8.45433e-05
24 *180:23 3.91025e-05
25 *180:24 5.33215e-05
26 *180:25 5.33215e-05
27 *180:18 *177:8 3.796e-05
28 *180:15 *177:9 3.796e-05
29 *180:15 *177:8 0.00015319
30 *180:16 *177:9 0.00015319
31 *180:15 *177:9 1.882e-05
32 *180:16 *177 1.882e-05
33 *180:16 *177:9 3.995e-05
34 *180:17 *177 3.995e-05
35 *180:21 *177:9 4.281e-05
36 *180 *177 4.28099971e-05

*RES
1 *180:5 *587:A 1.4
2 *180:6 *180:5 0.994289
3 *180:23 *540:A0 1.4
4 *180:7 *180:6 0.124269
5 *180:23 *180:24 0.124269
6 *180:8 *180:7 0.994289
7 *180:24 *180:25 0.372876
8 *180:8 *180:11 0.248537
9 *180:25 *180:10 0.124269
10 *180:12 *180:11 1.11856
11 *180:19 *560:A 1.4
12 *180:10 *180:9 1.36717
13 *180:22 *180:12 0.248537
14 *180:20 *180:19 0.372876
15 *180:18 *180:9 1.4
16 *180:13 *180:22 0.621413
17 *180:13 *603:Q 1.4
18 *180:15 *180:20 1.4
19 *180:15 *180:18 0.994289
20 *180:14 *180:13 0.248537
21 *180:16 *180:15 4.5985713
22 *180:16 *180:14 1.4
23 *180:17 *180:16 1.11856
24 *180:21 *180:17 0.124269
25 *180 *180:21 1.86431
*END

*D_NET *181 0.00356262

*CONN
*P *181 O *C 31.175 0 *L 0.05
*I *605:Q O *C 29.725 8.555 *L 0 *D DFFQX1
*I *577:A I *C 7.105 9.135 *L 0.00178 *D DLY1X1

*CAP
1 *181 7.82993e-05
2 *605:Q 3.68009e-05
3 *577:A 3.68009e-05
4 *181:3 0.000415822
5 *181:4 0.00047729
6 *181:5 0.00024816
7 *181:6 0.000192271
8 *181:9 3.24457e-05
9 *181:10 0.000119281
10 *181:11 0.000134983
11 *181:12 9.56474e-05
12 *181:13 0.000105742
13 *181:14 9.56474e-05
14 *181:15 0.000125267
15 *181:16 0.000246427
16 *181:17 0.00014188
17 *181:18 0.000230725
18 *181:17 *102:4 6.034e-05
19 *181:15 *102:5 6.034e-05
20 *181:13 *102:6 2.616e-05
21 *181:5 *102:7 2.616e-05
22 *181:5 *102:6 3.964e-05
23 *181:6 *102:7 3.964e-05
24 *181:18 *102:4 1.13e-05
25 *181:16 *102:5 1.13e-05
26 *181:11 *102:6 5.71e-06
27 *181:10 *102:7 5.71000194e-06
28 *181:14 *259:5 0.00011138
29 *181:12 *259:6 0.000111379997
30 *181:17 *134:15 2.432e-05
31 *181:15 *134:16 2.432e-05
32 *181:14 *134:16 1.201e-05
33 *181:12 *134:17 1.201e-05
34 *181:14 *134:18 1.459e-05
35 *181:12 *134:12 1.459e-05
36 *181:14 *134:12 3.405e-05
37 *181:12 *134:13 3.405e-05
38 *181:13 *134:13 1.624e-05
39 *181:5 *134:14 1.624e-05
40 *181:14 *134:13 1.882e-05
41 *181:12 *134:14 1.88200005e-05

*RES
1 *181:4 *181 0.621448
2 *181:4 *181:3 3.72857141
3 *181:8 *181:3 0.19304
4 *181:3 *605:Q 1.39998
5 *181:18 *181:3 1.39998
6 *181:16 *181:18 1.9886
7 *181:16 *181:17 0.248568
8 *181:15 *181:17 1.61572
9 *181:14 *181:15 0.124312
10 *181:12 *181:14 1.86429
11 *181:12 *181:13 0.124312
12 *181:5 *181:13 1.24284
13 *181:6 *181:5 1.86429
14 *181:11 *181:6 0.248568
15 *181:10 *181:11 1.11858
16 *181:9 *577:A 1.39998
17 *181:9 *181:10 1.39998
18 *181:7 *181:9 0.19304
*END

*D_NET *182 0.00180604

*CONN
*P *182 O *C 27.405 0 *L 0.05
*I *595:Q O *C 26.245 7.105 *L 0 *D DFFHQX1
*I *576:A I *C 27.115 14.355 *L 0.00172 *D CLKBUFX2

*CAP
1 *182 0.000198513
2 *595:Q 3.67985e-05
3 *576:A 3.67985e-05
4 *182:3 8.05471e-05
5 *182:4 8.05471e-05
6 *182:5 0.00035036875
7 *182:6 0.000350358
8 *182:7 8.66579e-05
9 *182:8 8.02317e-05
10 *182:9 7.06618e-05
11 *182:10 2.94901e-05
12 *182:11 4.51494e-05
13 *182:12 4.21394e-05
14 *182:13 5.66278e-05
15 *182:14 0.00026115

*RES
1 *182:12 *576:A 1.39999
2 *182:12 *182:13 0.248579
3 *182:11 *182:13 0.248579
4 *182:10 *182:11 0.12429
5 *182 *182:14 1.98856
6 *182:5 *182:10 0.12429
7 *182:7 *182:14 0.497158
8 *182:6 *182:5 2.2371428
9 *182:7 *182:8 0.248579
10 *182:8 *595:Q 1.39999
11 *182:3 *182:6 0.12429
12 *182:8 *182:9 0.994282
13 *182:4 *182:3 0.621413
14 *182:4 *182:9 0.12429
*END

*D_NET *183 0.00503657

*CONN
*I *586:A I *C 50.025 43.355 *L 0.00155 *D DLY2X1
*P *183 O *C 50.895 0 *L 0.05
*I *602:Q O *C 48.865 8.555 *L 0 *D DFFQX1
*I *566:A I *C 54.375 14.065 *L 0.00273 *D INVX1
*I *538:C1 I *C 48.865 12.035 *L 0.00176 *D AOI222XL

*CAP
1 *586:A 3.68073e-05
2 *183 0.000382851
3 *602:Q 3.68073e-05
4 *566:A 3.68073e-05
5 *538:C1 3.68073e-05
6 *183:5 0.000112001
7 *183:6 0.00018163
8 *183:7 0.000103431
9 *183:8 0.000122533
10 *183:9 0.000122533
11 *183:10 0.000102925
12 *183:11 0.000104137
13 *183:12 7.24955e-05
14 *183:13 7.24955e-05
15 *183:14 8.38703e-05
16 *183:15 8.38703e-05
17 *183:17 0.000432903
18 *183:18 0.000432029
19 *183:19 0.00100378
20 *183:20 0.00100465
21 *183:21 3.24536e-05
22 *183:22 0.000399683
23 *183:23 3.90761e-05

*RES
1 *183:23 *566:A 1.40002
2 *183:12 *183:23 0.124272
3 *183:13 *183:12 0.621362
4 *183:10 *183:13 0.124272
5 *183:11 *183:10 1.11861
6 *183 *183:22 4.10145
7 *183:5 *183:11 1.40002
8 *183:8 *538:C1 1.40002
9 *183:6 *183:22 1.40002
10 *183:6 *183:5 1.24288
11 *183:9 *183:8 0.870061
12 *183:9 *602:Q 1.40002
13 *183:7 *183:6 0.870061
14 *183:7 *183:9 1.40002
15 *183:17 *183:7 1.40002
16 *183:17 *183:18 4.22572
17 *183:18 *183:19 0.124272
18 *183:19 *183:20 10.0671425
19 *183:15 *183:20 1.40002
20 *183:15 *183:14 0.372817
21 *183:21 *586:A 1.40002
22 *183:21 *183:14 1.40002
23 *183:16 *183:21 0.193091
*END

*D_NET *184 0.00718194

*CONN
*I *580:A I *C 63.365 61.045 *L 0.00155 *D DLY2X1
*P *184 O *C 57.275 0 *L 0.05
*I *601:Q O *C 59.015 12.325 *L 0 *D DFFQX1
*I *558:A I *C 55.825 14.065 *L 0.00273 *D INVX1
*I *534:A0 I *C 55.88 19.2725 *L 0.00263 *D AOI211X1

*CAP
1 *580:A 3.6798e-05
2 *184 0.000360591
3 *601:Q 3.6798e-05
4 *558:A 3.6798e-05
5 *534:A0 3.6798e-05
6 *184:5 0.000177578
7 *184:6 0.000256831
8 *184:7 0.000163168
9 *184:8 0.00016197
10 *184:9 0.000376235
11 *184:10 0.000120897
12 *184:11 8.6421e-05
13 *184:12 0.000155281
14 *184:13 0.000126388
15 *184:14 0.000126388
16 *184:15 7.57888e-05
17 *184:16 7.57888e-05
18 *184:17 7.62126e-05
19 *184:18 7.70971e-05
20 *184:19 0.000102655
21 *184:20 0.000199561
22 *184:21 0.000199561
23 *184:22 0.000217729
24 *184:23 0.000216845
25 *184:24 0.00120759
26 *184:25 0.00120759
27 *184:26 4.55138e-05
28 *184:27 4.63983e-05
29 *184:30 4.16442e-05
30 *184:31 3.24493e-05
31 *184:32 4.10546e-05
32 *184:33 3.24493e-05
33 *184:24 *114:12 0.00016593
34 *184:25 *114:13 0.00016593
35 *184:11 *114:10 2.087e-05
36 *184:12 *114:11 2.08699931e-05
37 *184:24 *132:15 0.00031317
38 *184:25 *132:16 0.00031317
39 *184:26 *132:15 1.355e-05
40 *184:27 *132:16 1.3550015e-05

*RES
1 *184:33 *580:A 1.40002
2 *184:29 *184:33 0.193074
3 *184:20 *184:33 1.40002
4 *184:21 *184:20 1.49154
5 *184:22 *184:21 1.40002
6 *184:23 *184:22 1.98856
7 *184:23 *184:24 0.124255
8 *184:25 *184:24 15.6599998
9 *184:26 *184:25 0.124255
10 *184:27 *184:26 0.372766
11 *184:32 *184:27 1.40002
12 *184:15 *184:32 0.124255
13 *184:16 *184:15 0.372766
14 *184:16 *184:13 0.124255
15 *184:14 *184:13 0.994282
16 *184:17 *184:14 0.124255
17 *184:18 *184:17 0.372766
18 *184:30 *534:A0 1.40002
19 *184:5 *184:18 1.40002
20 *184:5 *184:30 0.248511
21 *184 *184:9 3.60436
22 *184:6 *558:A 1.40002
23 *184:6 *184:5 1.98856
24 *184:8 *184:9 0.124255
25 *184:10 *184:6 0.745771
26 *184:8 *184:7 1.49154
27 *184:19 *184:10 1.40002
28 *184:12 *184:7 1.40002
29 *184:19 *184:12 0.49726
30 *184:12 *184:11 0.870027
31 *184:31 *184:11 1.40002
32 *184:31 *601:Q 1.40002
33 *184:28 *184:31 0.193074
*END

*D_NET *185 0.00404885

*CONN
*I *585:A I *C 64.815 32.915 *L 0.00155 *D DLY2X1
*P *185 O *C 73.37 14.935 *L 0.05
*I *600:Q O *C 60.465 13.775 *L 0 *D DFFQX1
*I *546:B I *C 56.115 16.965 *L 0.00255 *D XOR2XL

*CAP
1 *585:A 3.67975e-05
2 *185 0.000253384
3 *600:Q 3.67975e-05
4 *546:B 3.67975e-05
5 *185:4 0.000281481
6 *185:5 0.000336382031
7 *185:6 0.00019898
8 *185:7 0.000193134
9 *185:8 0.000218239
10 *185:9 0.000218239
11 *185:10 5.68516e-05
12 *185:11 5.68516e-05
13 *185:12 0.000110849
14 *185:13 0.000110849
15 *185:14 0.000131196
16 *185:15 0.000115571
17 *185:16 3.02582e-05
18 *185:17 3.02582e-05
19 *185:18 4.2998e-05
20 *185:19 5.74316e-05
21 *185:20 0.000106491
22 *185:21 0.000107693
23 *185:22 4.89675e-05
24 *185:23 0.000174363
25 *185:24 4.89675e-05
26 *185:25 0.000174363
27 *185:26 0.000319962
28 *185:21 *129:10 9.752e-05
29 *185:20 *129:11 9.752e-05
30 *185:8 *129:10 9.155e-05
31 *185:9 *129:11 9.155e-05
32 *185:19 *129:8 3.746e-05
33 *185:18 *129:9 3.746e-05
34 *185:17 *129:8 4.94e-06
35 *185:16 *129:9 4.94e-06
36 *185:15 *129:8 2.588e-05
37 *185:14 *129:9 2.58800026e-05

*RES
1 *185:25 *585:A 1.39998
2 *185:23 *185:25 1.61572
3 *185:24 *185:23 1.39998
4 *185:22 *185:24 0.24859
5 *185:21 *185:22 1.39998
6 *185:20 *185:21 1.36713
7 *185:8 *185:20 0.124295
8 *185:9 *185:8 2.36141
9 *185:17 *185:9 0.124295
10 *185:16 *185:17 0.24859
11 *185:15 *185:16 0.124295
12 *185:14 *185:15 1.24287
13 *185:14 *185:19 0.24859
14 *185:26 *185 2.6099999
15 *185:18 *185:19 0.372846
16 *185:26 *185:7 0.497141
17 *185:12 *600:Q 1.39998
18 *185:4 *185:18 1.39998
19 *185:4 *185:7 1.24287
20 *185:12 *185:13 0.497141
21 *185:5 *185:4 1.49142
22 *185:5 *185:13 1.39998
23 *185:10 *546:B 1.39998
24 *185:6 *185:5 1.61572
25 *185:11 *185:10 0.372846
26 *185:11 *185:6 1.39998
*END

*D_NET *186 0.0066184

*CONN
*I *582:A I *C 9.715 22.475 *L 0.00155 *D DLY2X1
*P *186 O *C 38.425 0 *L 0.05
*I *599:Q O *C 38.425 33.205 *L 0 *D DFFQX1
*I *545:B I *C 40.745 24.795 *L 0.00253 *D CLKXOR2X1

*CAP
1 *582:A 3.68038e-05
2 *186 0.000445704
3 *599:Q 3.68038e-05
4 *545:B 3.68038e-05
5 *186:4 0.00014842
6 *186:5 0.000149615
7 *186:6 0.000126845
8 *186:7 0.00012565
9 *186:8 0.000462535
10 *186:9 0.000143234
11 *186:10 0.000142548
12 *186:11 9.58468e-05
13 *186:12 9.58468e-05
14 *186:13 0.000654229
15 *186:14 0.000654229
16 *186:15 0.000103334
17 *186:16 0.000103334
18 *186:17 0.000124478
19 *186:18 0.000125153
20 *186:19 0.000179628
21 *186:20 0.000179628
22 *186:24 3.37958e-05
23 *186:25 0.000709534
24 *186:26 0.00072474
25 *186:27 0.000238273
26 *186:28 3.24466e-05
27 *186:29 3.37958e-05
28 *186:30 0.000223056
29 *186:31 5.31819e-05
30 *186:32 5.31819e-05
31 *186:13 *161:14 0.00010981
32 *186:14 *161:15 0.00010981
33 *186:17 *161:26 3.416e-05
34 *186:18 *161:24 3.416e-05
35 *186:15 *161:14 2.889e-05
36 *186:16 *161:15 2.889001e-05

*RES
1 *186:5 *582:A 1.40003
2 *186:5 *186:4 1.1186
3 *186:7 *186:4 0.124333
4 *186:7 *186:6 0.621465
5 *186:18 *186:6 1.40003
6 *186:18 *186:17 1.49139
7 *186:16 *186:17 0.124333
8 *186:16 *186:15 1.36716
9 *186:15 *186:14 0.124333
10 *186:14 *186:13 6.33858
11 *186:13 *186:20 0.124333
12 *186:31 *545:B 1.40003
13 *186:20 *186:19 1.86429
14 *186:22 *186:28 0.193083
15 *186:28 *599:Q 1.40003
16 *186:31 *186:32 0.372899
17 *186:10 *186:19 0.124333
18 *186:23 *186:29 0.193083
19 *186:29 *186:28 1.40003
20 *186:11 *186:32 1.40003
21 *186:10 *186:9 1.36716
22 *186:30 *186:29 1.40003
23 *186:12 *186:11 0.994263
24 *186:27 *186:9 1.40003
25 *186:27 *186:30 2.23719
26 *186:26 *186:12 1.40003
27 *186:26 *186:27 0.372899
28 *186 *186:8 4.22572
29 *186:25 *186:26 6.58714294
30 *186:24 *186:8 1.40003
31 *186:24 *186:25 1.40003
32 *186:21 *186:24 0.193083
*END

*D_NET *187 0.010164

*CONN
*I *579:A I *C 7.685 45.385 *L 0.00155 *D DLY2X1
*P *187 O *C 73.37 40.745 *L 0.05
*I *598:Q O *C 47.415 39.875 *L 0 *D DFFQX1
*I *548:B I *C 54.085 37.845 *L 0.00255 *D XOR2XL

*CAP
1 *579:A 3.68009e-05
2 *187 5.00222e-05
3 *598:Q 3.68009e-05
4 *548:B 3.68009e-05
5 *187:4 5.68561e-05
6 *187:5 5.68561e-05
7 *187:6 0.000100623
8 *187:7 8.3795e-05
9 *187:8 0.000165025
10 *187:9 0.000165025
11 *187:10 0.000143464
12 *187:11 0.000126801
13 *187:12 0.000311352
14 *187:13 0.000607679
15 *187:14 0.000328611
16 *187:15 0.000233713
17 *187:16 0.000166283
18 *187:17 0.000102758
19 *187:18 0.000102758
20 *187:19 4.62825e-05
21 *187:20 6.29455e-05
22 *187:21 0.000100557
23 *187:22 0.00108442
24 *187:23 0.000148561
25 *187:24 0.000105339
26 *187:25 9.74298e-05
27 *187:26 9.74298e-05
28 *187:27 3.63873e-05
29 *187:28 3.57088e-05
30 *187:29 0.00104052
31 *187:30 0.000227127
32 *187:31 0.000227127
33 *187:33 3.2449e-05
34 *187:34 0.000157678
35 *187:35 0.000191021
36 *187:29 *488:15 0.00041302
37 *187:22 *488:13 0.00041302
38 *187:22 *488:15 6.203e-05
39 *187:23 *488:13 6.20300103e-05
40 *187:25 *28:8 5.657e-05
41 *187:26 *28:9 5.657e-05
42 *187:27 *28:8 4.696e-05
43 *187:28 *28:9 4.696e-05
44 *187:29 *28:8 0.0003591
45 *187:22 *28:9 0.000359099999
46 *187:29 *375:5 0.00011835
47 *187:22 *375:6 0.00011835
48 *187:29 *375:3 0.00040183
49 *187:22 *375:4 0.00040183
50 *187:29 *375:18 4.864e-05
51 *187:22 *375:17 4.86399842e-05
52 *187:19 *29:20 1.25e-05
53 *187:20 *29:18 1.25e-05
54 *187:10 *29:16 0.00014438
55 *187:11 *29:15 0.00014438
56 *187:12 *29:16 4.561e-05
57 *187:13 *29:15 4.561e-05
58 *187:12 *29:15 2.632e-05
59 *187:13 *29:14 2.632e-05
60 *187:13 *29:15 1.397e-05
61 *187:14 *29:14 1.397e-05
62 *187:8 *29:19 2.113e-05
63 *187:9 *29:17 2.113e-05
64 *187:8 *29:20 4.35e-06
65 *187:9 *29:18 4.35e-06
66 *187:8 *29:16 5.71e-06
67 *187:9 *29:15 5.71000676e-06

*RES
1 *187:35 *187 0.372937
2 *187:4 *579:A 1.40004
3 *187:34 *187:35 1.49139
4 *187:5 *187:4 0.372937
5 *187:34 *187:17 0.124312
6 *187:24 *187:5 1.40004
7 *187:18 *187:17 1.11863
8 *187:24 *187:23 0.994318
9 *187:19 *187:18 0.124312
10 *187:23 *187:22 0.870006
11 *187:20 *187:19 0.497069
12 *187:22 *187:29 11.8071432
13 *187:8 *187:20 0.248625
14 *187:29 *187:26 0.124312
15 *187:9 *187:8 1.49139
16 *187:26 *187:25 1.49139
17 *187:9 *187:10 0.248625
18 *187:28 *187:25 0.124312
19 *187:7 *548:B 1.40004
20 *187:11 *187:10 1.49139
21 *187:28 *187:27 0.497069
22 *187:7 *187:6 0.745693
23 *187:12 *187:11 0.124312
24 *187:30 *187:27 1.40004
25 *187:13 *187:6 1.40004
26 *187:13 *187:12 1.98864
27 *187:31 *187:30 1.98864
28 *187:14 *187:13 1.98864
29 *187:16 *187:31 1.40004
30 *187:14 *187:21 0.124312
31 *187:16 *187:15 1.36707
32 *187:15 *187:21 0.870006
33 *187:33 *187:15 1.40004
34 *187:33 *598:Q 1.40004
35 *187:32 *187:33 0.193134
*END

*D_NET *188 0.0017499

*CONN
*I *593:A I *C 64.525 17.255 *L 0.00155 *D DLY2X1
*P *188 O *C 73.37 18.415 *L 0.05
*I *611:Q O *C 66.265 18.995 *L 0 *D DFFQX1
*I *547:B I *C 58.725 19.575 *L 0.00255 *D XOR2XL

*CAP
1 *593:A 3.68013e-05
2 *188 6.658e-05
3 *611:Q 3.68013e-05
4 *547:B 3.68013e-05
5 *188:4 0.00027104
6 *188:5 0.00021739
7 *188:6 7.20137e-05
8 *188:7 7.20137e-05
9 *188:10 3.24512e-05
10 *188:11 3.24512e-05
11 *188:12 0.000341417891
12 *188:13 0.000336818
13 *188:6 *129:8 9.867e-05
14 *188:7 *129:9 9.86699966e-05

*RES
1 *188:7 *593:A 1.40002
2 *188 *188:13 0.497162
3 *188:9 *188:11 0.193055
4 *188:11 *611:Q 1.40002
5 *188:7 *188:6 0.99428
6 *188:12 *188:13 2.85857153
7 *188:12 *188:11 1.40002
8 *188:4 *188:6 1.40002
9 *188:4 *188:12 0.745699
10 *188:5 *188:4 2.23714
11 *188:10 *547:B 1.40002
12 *188:10 *188:5 1.40002
13 *188:8 *188:10 0.193055
*END

*D_NET *189 0.00396573

*CONN
*I *583:A I *C 63.075 34.945 *L 0.00155 *D DLY2X1
*P *189 O *C 73.37 32.915 *L 0.05
*I *610:Q O *C 44.515 33.205 *L 0 *D DFFQX1
*I *550:B I *C 43.935 30.015 *L 0.00255 *D XOR2XL

*CAP
1 *583:A 3.68008e-05
2 *189 0.000204884
3 *610:Q 3.68008e-05
4 *550:B 3.68008e-05
5 *189:4 6.43147e-05
6 *189:5 6.25029e-05
7 *189:6 7.57005e-05
8 *189:7 7.68687e-05
9 *189:8 0.00064884
10 *189:9 0.00064884
11 *189:10 0.000156985
12 *189:11 0.000157826
13 *189:12 0.000221567
14 *189:13 3.42563e-05
15 *189:14 0.000100739
16 *189:15 9.40959e-05
17 *189:10 *173:18 4.23e-06
18 *189:11 *173:16 4.23e-06
19 *189:10 *173 3.424e-05
20 *189:11 *173:17 3.424e-05
21 *189 *173 5.993e-05
22 *189:12 *173:17 5.993e-05
23 *189:8 *173:9 1.979e-05
24 *189:9 *173:10 1.979e-05
25 *189:8 *173:18 2.17e-06
26 *189:9 *173:16 2.17e-06
27 *189:6 *173:6 4.36e-06
28 *189:7 *173:7 4.35999521e-06
29 *189:8 *316:3 0.00011087
30 *189:9 *316:4 0.000110869998
31 *189:8 *27:14 8.282e-05
32 *189:9 *27:15 8.282e-05
33 *189:8 *27:16 8.528e-05
34 *189:9 *27:17 8.528e-05
35 *189:8 *27:12 1.364e-05
36 *189:9 *27:13 1.364e-05
37 *189:8 *27:18 9.465e-05
38 *189:9 *27:19 9.465e-05
39 *189:8 *27:20 5.625e-05
40 *189:9 *27:21 5.62500006e-05
41 *189:13 *388:2 2.512e-05
42 *189:4 *388:3 2.512e-05
43 *189:4 *388:2 6.06e-05
44 *189:5 *388:3 6.06000007e-05

*RES
1 *189:12 *189 2.60996
2 *189:12 *189:10 0.124255
3 *189:11 *189:10 1.61568
4 *189:15 *583:A 1.40002
5 *189:14 *189:11 1.40002
6 *189:14 *189:15 0.745771
7 *189:6 *189:14 0.124255
8 *189:7 *189:6 0.745771
9 *189:8 *189:7 1.40002
10 *189:9 *189:8 7.82999992
11 *189:13 *610:Q 1.40002
12 *189:4 *189:9 1.40002
13 *189:4 *189:13 0.24863
14 *189:5 *189:4 0.621396
15 *550:B *189:5 1.40002
*END

*D_NET *190 0.00614278

*CONN
*I *590:A I *C 37.845 29.725 *L 0.00155 *D DLY2X1
*P *190 O *C 73.37 36.105 *L 0.05
*I *609:Q O *C 34.075 38.425 *L 0 *D DFFQX1
*I *572:A I *C 47.135 35.1725 *L 0.00163 *D INVXL
*I *539:B0 I *C 49.5575 35.3075 *L 0.00163 *D AOI222XL

*CAP
1 *590:A 3.68041e-05
2 *190 0.00036173
3 *609:Q 3.68041e-05
4 *572:A 5.2441e-05
5 *539:B0 3.68041e-05
6 *190:5 0.000308631
7 *190:6 0.000308631
8 *190:7 7.93699e-05
9 *190:8 7.93699e-05
10 *190:9 5.54483e-05
11 *190:10 5.54483e-05
12 *190:11 7.27407e-05
13 *190:12 0.000378415
14 *190:13 0.000298792
15 *190:14 0.000473768867
16 *190:15 5.82677e-05
17 *190:16 0.000208108
18 *190:17 5.82677e-05
19 *190:18 4.35273e-05
20 *190:19 9.27368e-05
21 *190:20 0.000338358
22 *190:21 0.000288982
23 *190:21 *95:2 0.00010505
24 *190:20 *95:3 0.00010505
25 *190:21 *95:4 0.00021761
26 *190:20 *95:5 0.00021761
27 *190:20 *95:6 9.78e-05
28 *190:19 *95:7 9.78e-05
29 *190:19 *95:6 3.677e-05
30 *190:18 *95:7 3.677e-05
31 *190 *95:4 9.728e-05
32 *190:12 *95:5 9.72800057e-05
33 *190 *191 5.707e-05
34 *190:12 *191:11 5.707e-05
35 *190:21 *191:12 0.00040055
36 *190:20 *191:13 0.00040055
37 *190:20 *191:13 4.911e-05
38 *190:19 *191:14 4.911e-05
39 *190:7 *191:6 2.34e-06
40 *190:8 *191:15 2.34001296e-06
41 *190 *28:6 3.727e-05
42 *190:12 *28:7 3.727e-05
43 *190:20 *28:2 3.45e-05
44 *190:19 *28:3 3.45e-05
45 *190:19 *28:2 2.14e-05
46 *190:18 *28:3 2.14e-05
47 *190 *28:4 5.291e-05
48 *190:12 *28:5 5.29099972e-05

*RES
1 *190:11 *572:A 0.773346
2 *190:8 *539:B0 1.39997
3 *190:12 *190 4.97146
4 *190:10 *190:11 1.39997
5 *190:8 *190:7 0.497162
6 *190:12 *190:21 0.124252
7 *190:10 *190:9 0.497162
8 *190:20 *190:7 1.39997
9 *190:20 *190:21 5.09571409
10 *190:19 *190:9 1.39997
11 *190:19 *190:20 1.49141
12 *190:6 *590:A 1.39997
13 *190:18 *190:19 0.621413
14 *190:6 *190:5 2.98289
15 *190:18 *190:13 0.124252
16 *190:14 *190:5 1.39997
17 *190:14 *190:13 2.85856
18 *190:16 *190:14 1.61574
19 *190:17 *609:Q 1.39997
20 *190:15 *190:16 1.39997
21 *190:15 *190:17 0.248581
*END

*D_NET *191 0.00524111

*CONN
*I *581:A I *C 61.915 45.385 *L 0.00155 *D DLY2X1
*P *191 O *C 73.37 37.555 *L 0.05
*I *607:Q O *C 45.965 38.425 *L 0 *D DFFQX1
*I *567:A I *C 48.585 37.9075 *L 0.00163 *D INVXL
*I *539:A0 I *C 51.185 34.945 *L 0.00155 *D AOI222XL

*CAP
1 *581:A 3.68023e-05
2 *191 0.000497708
3 *607:Q 3.68023e-05
4 *567:A 1.2823e-05
5 *539:A0 3.68023e-05
6 *191:5 3.96719e-05
7 *191:6 7.63327e-05
8 *191:7 0.00011032
9 *191:8 0.00011032
10 *191:9 0.000316927
11 *191:10 0.000304969
12 *191:11 0.00051524
13 *191:12 0.000207951
14 *191:13 0.000232858
15 *191:14 5.87217e-05
16 *191:15 6.91232e-05
17 *191:16 6.63086e-05
18 *191:17 0.000143986
19 *191:18 0.000143986
20 *191:20 3.24467e-05
21 *191:21 4.00965e-05
22 *191:22 8.60817e-05
23 *191 *190 5.707e-05
24 *191:11 *190:12 5.707e-05
25 *191:12 *190:21 0.00040055
26 *191:13 *190:20 0.00040055
27 *191:13 *190:20 4.911e-05
28 *191:14 *190:19 4.911e-05
29 *191:6 *190:7 2.34e-06
30 *191:15 *190:8 2.34001296e-06
31 *191:12 *28:2 0.00040055
32 *191:13 *28:3 0.00040055
33 *191:13 *28:2 0.0001228
34 *191:14 *28:3 0.000122800008

*RES
1 *191:22 *581:A 1.40002
2 *191:11 *191 5.21999979
3 *191:9 *191:22 0.497181
4 *191:10 *191:11 1.40002
5 *191:10 *191:9 3.35569
6 *191:8 *539:A0 1.40002
7 *191:16 *191:10 0.621436
8 *191:8 *191:7 0.497181
9 *191:12 *191:16 1.40002
10 *191:13 *191:7 1.40002
11 *191:13 *191:12 4.10146
12 *191:14 *191:13 1.24287
13 *191:21 *567:A 0.193313
14 *191:15 *191:14 1.40002
15 *191:6 *191:21 1.40002
16 *191:15 *191:6 0.745691
17 *191:6 *191:5 0.24859
18 *191:17 *191:5 1.40002
19 *191:18 *191:17 0.994282
20 *191:20 *191:18 1.40002
21 *191:20 *607:Q 1.40002
22 *191:19 *191:20 0.193074
*END

*D_NET *192 0.00234612

*CONN
*I *592:A I *C 61.915 43.355 *L 0.00155 *D DLY2X1
*P *192 O *C 73.37 42.485 *L 0.05
*I *606:Q O *C 65.975 39.875 *L 0 *D DFFQX1
*I *549:B I *C 56.405 40.455 *L 0.00255 *D XOR2XL

*CAP
1 *592:A 3.68e-05
2 *192 0.000109949
3 *606:Q 3.68e-05
4 *549:B 3.68e-05
5 *192:4 5.573e-05
6 *192:5 5.573e-05
7 *192:6 0.000110531
8 *192:7 0.000110531
9 *192:8 0.00017185
10 *192:9 0.00022556
11 *192:10 6.41178e-05
12 *192:11 8.6672e-05
13 *192:12 6.54704e-05
14 *192:13 6.54704e-05
15 *192:14 7.12286e-05
16 *192:15 3.92196e-05
17 *192:16 9.96787e-05
18 *192:17 2.99301e-05
19 *192:18 9.96787e-05
20 *192:19 2.99301e-05
21 *192:20 0.000126632
22 *192 *174 1.459e-05
23 *192:20 *174:14 1.459e-05
24 *192:18 *174:7 3.309e-05
25 *192:16 *174:8 3.309e-05
26 *192:9 *174:7 7.887e-05
27 *192:8 *174:8 7.887e-05
28 *192:15 *174:7 3.751e-05
29 *192:14 *174:8 3.751e-05
30 *192:14 *174:7 0.00011229
31 *192:10 *174:8 0.00011229
32 *192 *174:15 2.283e-05
33 *192:20 *174:16 2.283e-05
34 *192:19 *174:15 9.73e-06
35 *192:17 *174:16 9.73000703e-06

*RES
1 *192:20 *192 1.36715
2 *192:19 *192:20 0.124284
3 *192:17 *192:19 0.248568
4 *192:17 *192:18 0.124284
5 *192:16 *192:18 0.994271
6 *192:12 *606:Q 1.40001
7 *192:15 *192:16 0.124284
8 *192:12 *192:13 0.497135
9 *192:14 *192:15 0.372851
10 *192:14 *192:13 1.40001
11 *192:4 *592:A 1.40001
12 *192:10 *192:14 1.11859
13 *192:5 *192:4 0.372851
14 *192:10 *192:11 0.124284
15 *192:9 *192:5 1.40001
16 *192:9 *192:11 0.621419
17 *192:8 *192:9 2.1128571
18 *192:6 *192:8 1.40001
19 *192:7 *192:6 0.869987
20 *549:B *192:7 1.40001
*END

*D_NET *193 0.000486259

*CONN
*P *193 O *C 0 18.995 *L 0.05
*I *510:Q O *C 5.365 18.995 *L 0 *D DFFQX1

*CAP
1 *193 0.000199739
2 *510:Q 3.68001e-05
3 *193:3 3.24504e-05
4 *193:4 0.00021727

*RES
1 *193 *193:4 2.1128571
2 *193:3 *193:4 1.40001
3 *193:3 *510:Q 1.40001
4 *193:2 *193:3 0.193051
*END

*D_NET *194 0.00268818

*CONN
*I *604:SI I *C 17.835 16.965 *L 0.00172 *D SDFFQX1
*I *594:Y O *C 11.455 30.015 *L 0 *D DLY3X1
*I *537:B0 I *C 16.965 12.035 *L 0.00265 *D AOI22X1

*CAP
1 *604:SI 3.67981e-05
2 *594:Y 3.67981e-05
3 *537:B0 3.67981e-05
4 *194:3 0.000182573
5 *194:4 0.000182573
6 *194:5 8.4317e-05
7 *194:6 0.000128049
8 *194:7 7.75386e-05
9 *194:8 0.00024103
10 *194:9 0.00024103
11 *194:10 8.58986e-05
12 *194:11 8.58986e-05
13 *194:13 0.0005106
14 *194:14 0.0005106
15 *194:15 3.24506e-05
16 *194:3 *200:7 2.014e-05
17 *194:4 *200:6 2.014e-05
18 *194:3 *200:5 8.747e-05
19 *194:4 *200:3 8.74700022e-05

*RES
1 *194:10 *594:Y 1.40003
2 *194:11 *194:10 0.621429
3 *194:9 *194:11 1.40003
4 *194:9 *194:8 1.98854
5 *194:14 *194:8 1.40003
6 *194:4 *537:B0 1.40003
7 *194:13 *194:14 4.97142839
8 *194:4 *194:3 2.11287
9 *194:7 *194:13 1.40003
10 *194:6 *194:3 1.40003
11 *194:7 *194:6 0.372842
12 *194:6 *194:5 0.372842
13 *194:15 *604:SI 1.40003
14 *194:15 *194:5 1.40003
15 *194:12 *194:15 0.193059
*END

*D_NET *195 0.0023544

*CONN
*I *497:A I *C 53.795 30.015 *L 0.00184 *D DLY1X4
*I *838:Q O *C 55.825 50.315 *L 0 *D DFFQX1

*CAP
1 *497:A 3.68011e-05
2 *838:Q 3.68011e-05
3 *195:2 8.00725e-05
4 *195:3 0.000157203
5 *195:4 0.000189937
6 *195:5 0.000189937
7 *195:6 0.000262907
8 *195:7 0.000200272
9 *195:8 0.00044123
10 *195:9 0.00042557
11 *195:10 0.000166252
12 *195:11 0.000167423

*RES
1 *195:11 *838:Q 1.4
2 *195:10 *195:11 1.74
3 *195:9 *195:10 0.124293
4 *195:8 *195:9 3.60428572
5 *195:5 *195:8 0.248587
6 *195:4 *195:5 1.49141
7 *195:4 *195:7 0.248587
8 *195:6 *195:7 1.49141
9 *195:3 *195:6 0.745705
10 *195:2 *195:3 0.37288
11 *497:A *195:2 1.4
*END

*D_NET *196 0.000653359

*CONN
*I *508:A I *C 23.925 19.865 *L 0.00172 *D DLY3X1
*I *516:Q O *C 21.315 17.545 *L 0 *D DFFQX1

*CAP
1 *508:A 3.68e-05
2 *516:Q 3.68e-05
3 *196:2 0.000105679
4 *196:3 0.000105679
5 *196:4 0.000133990234
6 *196:5 0.000133990234
7 *196:6 5.02103e-05
8 *196:7 5.02103e-05

*RES
1 *196:7 *508:A 1.39999998
2 *196:6 *196:7 0.372858
3 *196:2 *196:6 1.39999998
4 *196:3 *196:2 1.11857
5 *196:5 *196:3 1.39999998
6 *196:4 *196:5 0.621429
7 *516:Q *196:4 1.39999998
*END

*D_NET *197 0.00157016

*CONN
*I *509:A I *C 35.235 6.235 *L 0.00172 *D DLY3X1
*I *515:Q O *C 20.155 7.105 *L 0 *D DFFQX1

*CAP
1 *509:A 3.67989e-05
2 *515:Q 3.67989e-05
3 *197:3 3.24495e-05
4 *197:4 5.10827e-05
5 *197:5 0.000260222
6 *197:6 6.6794e-05
7 *197:7 0.0005471
8 *197:8 0.000336959
9 *197:9 5.88382e-05
10 *197:10 4.17911e-05
11 *197:11 5.95144e-05
12 *197:12 4.17911e-05

*RES
1 *197:12 *509:A 1.4
2 *197:10 *197:12 0.248564
3 *197:11 *197:10 1.4
4 *197:9 *197:11 0.372872
5 *197:8 *197:9 0.124308
6 *197:7 *197:8 3.48000002
7 *197:5 *197:7 2.23713
8 *197:5 *197:6 0.248564
9 *197:4 *197:6 0.372872
10 *197:3 *197:4 1.4
11 *197:3 *515:Q 1.4
12 *197:2 *197:3 0.193074
*END

*D_NET *198 0.00601045

*CONN
*I *502:A I *C 67.425 14.355 *L 0.00172 *D CLKBUFX2
*I *514:Q O *C 13.195 7.105 *L 0 *D DFFQX1

*CAP
1 *502:A 3.68039e-05
2 *514:Q 3.68039e-05
3 *198:3 3.24464e-05
4 *198:4 0.000197376
5 *198:5 0.000715481
6 *198:6 0.000196469
7 *198:7 0.00071571
8 *198:8 0.000221544
9 *198:9 0.00021568
10 *198:10 0.000221544
11 *198:11 0.000215483
12 *198:12 0.000190736
13 *198:13 0.000193444
14 *198:14 0.000190736
15 *198:15 0.000319211
16 *198:16 0.000194329
17 *198:17 0.000319211
18 *198:14 *23:4 4.503e-05
19 *198:12 *23:5 4.503e-05
20 *198:10 *23:6 6.54e-05
21 *198:8 *23:7 6.54e-05
22 *198:6 *23:8 3.484e-05
23 *198:4 *23:9 3.484e-05
24 *198:11 *23:10 3.459e-05
25 *198:9 *23:11 3.459e-05
26 *198:7 *23:12 4.985e-05
27 *198:5 *23:13 4.9849994e-05
28 *198:7 *108:7 0.00024983
29 *198:5 *108:8 0.000249830013
30 *198:10 *389:5 0.00010819
31 *198:8 *389:6 0.00010819
32 *198:7 *389:5 7.428e-05
33 *198:5 *389:6 7.428e-05
34 *198:7 *389:7 3.677e-05
35 *198:5 *389:8 3.677e-05
36 *198:7 *389:9 4.736e-05
37 *198:5 *389:10 4.73600084e-05
38 *198:7 *139:99 5.395e-05
39 *198:5 *139:97 5.395e-05
40 *198:7 *139:97 9.864e-05
41 *198:5 *139:98 9.86400033e-05

*RES
1 *198:17 *502:A 1.40002
2 *198:15 *198:17 3.23144
3 *198:16 *198:15 1.40002
4 *198:13 *198:16 1.8643
5 *198:13 *198:14 0.124331
6 *198:12 *198:14 2.1128
7 *198:11 *198:12 0.124331
8 *198:9 *198:11 2.60995
9 *198:9 *198:10 0.124331
10 *198:8 *198:10 3.23144
11 *198:7 *198:8 0.124331
12 *198:5 *198:7 10.9371433
13 *198:5 *198:6 0.124331
14 *198:4 *198:6 2.48579
15 *198:3 *198:4 1.40002
16 *198:3 *514:Q 1.40002
17 *198:2 *198:3 0.193089
*END

*D_NET *199 0.00712671

*CONN
*I *501:A I *C 65.685 27.695 *L 0.00283 *D CLKBUFX3
*I *513:Q O *C 13.195 13.775 *L 0 *D DFFQX1

*CAP
1 *501:A 3.67958e-05
2 *513:Q 3.67958e-05
3 *199:2 0.00030772
4 *199:3 0.000322162
5 *199:4 0.00113212
6 *199:5 0.0011319
7 *199:6 0.000419231
8 *199:7 0.000420146
9 *199:8 0.000136041
10 *199:9 0.000136041
11 *199:10 0.000182925
12 *199:11 0.000182925
13 *199:12 0.000119491
14 *199:13 0.000241332
15 *199:14 0.000119284
16 *199:15 0.000241332
17 *199:16 0.000151416
18 *199:17 3.39109e-05
19 *199:18 0.000151416
20 *199:19 0.000158153
21 *199:20 3.48092e-05
22 *199:21 0.000172595
23 *199:4 *298:11 0.00020632
24 *199:5 *298:10 0.00020632
25 *199:4 *298:10 0.00010873
26 *199:5 *298:6 0.000108730016
27 *199:18 *139:117 2.662e-05
28 *199:16 *139:118 2.662e-05
29 *199:20 *139:117 1.364e-05
30 *199:17 *139:118 1.364e-05
31 *199:15 *139:118 5.514e-05
32 *199:13 *139:119 5.514e-05
33 *199:15 *139:119 3.341e-05
34 *199:13 *139:120 3.341e-05
35 *199:14 *139:120 7.62e-06
36 *199:12 *139:121 7.62e-06
37 *199:4 *139:122 1.228e-05
38 *199:5 *139:123 1.228e-05
39 *199:4 *139:124 2.513e-05
40 *199:5 *139:125 2.513e-05
41 *199:21 *139:126 2.178e-05
42 *199:19 *139:127 2.178e-05
43 *199:21 *139:128 6.235e-05
44 *199:19 *139:129 6.235e-05
45 *199:8 *139:130 3.717e-05
46 *199:9 *139:131 3.717e-05
47 *199:8 *139:131 1.888e-05
48 *199:9 *139:132 1.88799874e-05

*RES
1 *199:2 *501:A 1.39992
2 *199:3 *199:2 2.11281
3 *199:21 *199:3 0.248503
4 *199:19 *199:21 1.74006
5 *199:20 *199:19 1.39992
6 *199:17 *199:20 0.372933
7 *199:17 *199:18 0.124252
8 *199:16 *199:18 1.49138
9 *199:15 *199:16 0.124252
10 *199:13 *199:15 2.48574
11 *199:13 *199:14 0.124252
12 *199:12 *199:14 1.36712
13 *199:4 *199:12 0.124252
14 *199:5 *199:4 11.6828575
15 *199:11 *199:5 0.124252
16 *199:10 *199:11 1.98856
17 *199:10 *199:6 0.124252
18 *199:7 *199:6 2.8585
19 *199:8 *199:7 1.39992
20 *199:9 *199:8 1.49138
21 *513:Q *199:9 1.39992
*END

*D_NET *200 0.00105055

*CONN
*I *564:Y O *C 17.7525 14.065 *L 0 *D CLKINVX1
*I *554:B I *C 19.285 11.745 *L 0.00167 *D NAND2XL
*I *537:B1 I *C 16.675 12.035 *L 0.00283 *D AOI22X1

*CAP
1 *564:Y 7.93205e-05
2 *554:B 3.6801e-05
3 *537:B1 3.6801e-05
4 *200:3 8.06698e-05
5 *200:4 7.23398e-05
6 *200:5 8.06698e-05
7 *200:6 0.00020423
8 *200:7 0.0001429
9 *200:8 0.000101599
10 *200:7 *194:3 2.014e-05
11 *200:6 *194:4 2.014e-05
12 *200:5 *194:3 8.747e-05
13 *200:3 *194:4 8.74700022e-05

*RES
1 *200:8 *554:B 1.39999998
2 *200:6 *200:8 0.621429
3 *200:6 *200:7 0.994287
4 *564:Y *200:7 1.39999998
5 *200:4 *564:Y 0.773337
6 *200:5 *200:4 1.39999998
7 *200:3 *200:5 0.870001
8 *537:B1 *200:3 1.39999998
*END

*D_NET *201 0.00035662

*CONN
*I *574:Y O *C 14.8525 11.745 *L 0 *D INVXL
*I *537:A0 I *C 15.805 11.745 *L 0.00263 *D AOI22X1

*CAP
1 *574:Y 2.56595e-05
2 *537:A0 3.67998e-05
3 *201:2 9.165e-05
4 *201:3 9.165e-05
5 *201:6 4.596e-05
6 *201:7 3.24505e-05
7 *201:8 3.24505e-05

*RES
1 *201:8 *537:A0 1.39999998
2 *201:5 *201:8 0.193051
3 *201:2 *201:8 1.39999998
4 *201:3 *201:2 0.621429
5 *201:6 *574:Y 0.386658
6 *201:7 *201:3 1.39999998
7 *201:7 *201:6 1.39999998
8 *201:4 *201:7 0.193051
*END

*D_NET *202 0.000718601

*CONN
*I *573:Y O *C 52.1375 11.745 *L 0 *D INVXL
*I *538:C0 I *C 49.155 12.325 *L 0.00166 *D AOI222XL

*CAP
1 *573:Y 3.68009e-05
2 *538:C0 3.68009e-05
3 *202:2 9.15614e-05
4 *202:3 0.00017723
5 *202:4 9.15614e-05
6 *202:5 5.37112e-05
7 *202:6 0.00017723
8 *202:7 5.37112e-05

*RES
1 *202:7 *573:Y 1.39999998
2 *202:5 *202:7 0.372858
3 *202:6 *202:5 1.39999998
4 *202:4 *538:C0 1.39999998
5 *202:3 *202:6 1.24286
6 *202:2 *202:4 0.497144
7 *202:2 *202:3 1.39999998
*END

*D_NET *203 0.000362929

*CONN
*I *572:Y O *C 47.4975 35.235 *L 0 *D INVXL
*I *539:C0 I *C 49.155 34.655 *L 0.00166 *D AOI222XL

*CAP
1 *572:Y 3.89597e-05
2 *539:C0 3.67997e-05
3 *203:2 6.624e-05
4 *203:3 3.91001e-05
5 *203:4 3.01802e-05
6 *203:5 4.58409e-05
7 *203:6 4.566e-05
8 *203:7 6.01502e-05

*RES
1 *203:6 *539:C0 1.39999998
2 *203:6 *203:7 0.248572
3 *203:5 *203:7 0.248572
4 *203:4 *203:5 0.124286
5 *203:3 *203:4 0.124286
6 *203:2 *203:3 1.39999998
7 *572:Y *203:2 0.580008
*END

*D_NET *204 0.000993171

*CONN
*I *571:Y O *C 26.6175 32.915 *L 0 *D INVX1
*I *536:B1 I *C 25.955 29.725 *L 0.00268 *D AOI221X1
*I *533:B1 I *C 29.145 29.725 *L 0.00274 *D OAI221X1

*CAP
1 *571:Y 3.6799e-05
2 *536:B1 1.28191e-05
3 *533:B1 1.31404e-05
4 *204:3 7.31199e-05
5 *204:4 7.31199e-05
6 *204:5 7.68102e-05
7 *204:6 7.68102e-05
8 *204:7 0.00016319
9 *204:8 0.00016319
10 *204:9 9.56007e-05
11 *204:10 9.56007e-05
12 *204:13 4.01009e-05
13 *204:14 3.24512e-05
14 *204:15 4.04196e-05

*RES
1 *204:5 *571:Y 1.39999998
2 *204:6 *204:5 0.745715
3 *204:10 *204:6 1.39999998
4 *204:10 *204:9 0.994287
5 *204:15 *533:B1 0.193329
6 *204:3 *204:9 1.39999998
7 *204:4 *204:15 1.39999998
8 *204:12 *204:4 0.0299927
9 *204:4 *204:3 0.497144
10 *204:7 *204:4 1.39999998
11 *536:B1 *204:13 0.193329
12 *204:8 *204:7 1.11857
13 *204:14 *204:13 1.39999998
14 *204:14 *204:8 1.39999998
15 *204:11 *204:14 0.193051
*END

*D_NET *205 0.000677499

*CONN
*I *570:Y O *C 35.0275 29.725 *L 0 *D INVX1
*I *530:A1 I *C 34.365 27.405 *L 0.00274 *D OAI21X1
*I *529:A1 I *C 34.655 24.505 *L 0.00279 *D AOI211X1

*CAP
1 *570:Y 3.67992e-05
2 *530:A1 3.67992e-05
3 *529:A1 3.67992e-05
4 *205:3 7.27805e-05
5 *205:4 9.30594336e-05
6 *205:5 6.60596e-05
7 *205:6 8.59311e-05
8 *205:7 8.47596e-05
9 *205:8 8.94995e-05
10 *205:9 7.50099e-05

*RES
1 *205:9 *570:Y 1.39999998
2 *205:8 *205:9 0.621429
3 *205:6 *529:A1 1.39999998
4 *205:3 *205:8 0.248572
5 *205:6 *205:7 0.621429
6 *205:4 *530:A1 1.39999998
7 *205:4 *205:3 0.372858
8 *205:5 *205:7 0.124286
9 *205:5 *205:4 0.497144
*END

*D_NET *206 0.00038129

*CONN
*I *569:Y O *C 49.6525 38.135 *L 0 *D INVX1
*I *539:A1 I *C 50.605 34.945 *L 0.00161 *D AOI222XL

*CAP
1 *569:Y 3.68008e-05
2 *539:A1 3.68008e-05
3 *206:2 4.72803e-05
4 *206:3 4.84501e-05
5 *206:4 8.643e-05
6 *206:5 7.07701e-05
7 *206:6 5.47594e-05

*RES
1 *206:6 *539:A1 1.39999998
2 *206:4 *206:6 0.248572
3 *206:4 *206:5 0.870001
4 *206:3 *569:Y 1.39999998
5 *206:2 *206:5 0.124286
6 *206:2 *206:3 0.497144
*END

*D_NET *207 0.0003696

*CONN
*I *568:Y O *C 20.6525 30.015 *L 0 *D INVXL
*I *540:A1 I *C 19.575 30.015 *L 0.00276 *D OAI22X1

*CAP
1 *568:Y 3.67997e-05
2 *540:A1 3.67997e-05
3 *207:2 8.80294e-05
4 *207:3 4.22198e-05
5 *207:4 0.000105779551
6 *207:5 5.997e-05

*RES
1 *207:5 *568:Y 1.39999998
2 *207:3 *540:A1 1.39999998
3 *207:4 *207:5 0.248572
4 *207:2 *207:3 0.248572
5 *207:2 *207:4 0.497144
*END

*D_NET *208 0.000347939

*CONN
*I *567:Y O *C 48.9475 37.845 *L 0 *D INVXL
*I *535:A1 I *C 50.895 38.135 *L 0.00279 *D AOI211X1

*CAP
1 *567:Y 3.68002e-05
2 *535:A1 3.68002e-05
3 *208:4 3.24491e-05
4 *208:5 0.00010472
5 *208:6 3.24491e-05
6 *208:7 0.00010472

*RES
1 *208:6 *535:A1 1.39999998
2 *208:3 *208:6 0.193051
3 *208:7 *208:6 1.39999998
4 *208:5 *208:7 0.870001
5 *208:4 *208:5 1.39999998
6 *208:4 *567:Y 1.39999998
7 *208:2 *208:4 0.193051
*END

*D_NET *209 0.00113489

*CONN
*I *566:Y O *C 54.7475 14.065 *L 0 *D INVX1
*I *538:B1 I *C 50.025 12.035 *L 0.00162 *D AOI222XL

*CAP
1 *566:Y 3.68012e-05
2 *538:B1 3.68012e-05
3 *209:2 0.000139341
4 *209:3 0.000139341
5 *209:5 0.00037508
6 *209:6 3.24514e-05
7 *209:7 0.00037508

*RES
1 *209:3 *538:B1 1.4
2 *209:3 *209:2 0.87
3 *209:5 *209:2 1.4
4 *209:5 *209:7 1.98857141
5 *209:6 *209:7 1.4
6 *209:6 *566:Y 1.4
7 *209:4 *209:6 0.193074
*END

*D_NET *210 0.000803958

*CONN
*I *565:Y O *C 25.7475 32.915 *L 0 *D INVX1
*I *536:A1 I *C 26.535 29.725 *L 0.00267 *D AOI221X1
*I *533:A1 I *C 28.565 30.015 *L 0.00265 *D OAI221X1

*CAP
1 *565:Y 3.67987e-05
2 *536:A1 3.67987e-05
3 *533:A1 3.67987e-05
4 *210:3 5.66298e-05
5 *210:4 5.77994e-05
6 *210:5 9.33805e-05
7 *210:6 7.77207e-05
8 *210:7 4.87308e-05
9 *210:8 0.00012586
10 *210:9 7.368e-05
11 *210:10 8.93398e-05
12 *210:11 7.0419e-05

*RES
1 *210:11 *533:A1 1.39999998
2 *210:9 *210:11 0.372858
3 *210:7 *536:A1 1.39999998
4 *210:9 *210:10 0.248572
5 *210:7 *210:8 0.372858
6 *210:8 *210:10 0.497144
7 *210:5 *210:8 0.248572
8 *210:5 *210:6 0.621429
9 *210:4 *565:Y 1.39999998
10 *210:3 *210:6 0.124286
11 *210:3 *210:4 0.372858
*END

*D_NET *211 0.00126036

*CONN
*I *563:Y O *C 33.9925 17.255 *L 0 *D INVX1
*I *544:A1 I *C 31.175 14.355 *L 0.00276 *D OAI22X1
*I *528:A1 I *C 31.755 17.255 *L 0.00279 *D AOI211X1

*CAP
1 *563:Y 2.58199e-05
2 *544:A1 3.68004e-05
3 *528:A1 3.68004e-05
4 *211:3 4.04501e-05
5 *211:4 4.04501e-05
6 *211:5 7.83097e-05
7 *211:6 7.83097e-05
8 *211:7 8.82607e-05
9 *211:8 8.82607e-05
10 *211:10 0.000121350332
11 *211:11 8.26593e-05
12 *211:12 0.000121350332
13 *211:13 0.00010021
14 *211:14 4.612e-05
15 *211:15 5.00104e-05
16 *211:15 *159:11 3.769e-05
17 *211:13 *159:12 3.769e-05
18 *211:13 *159:11 7.491e-05
19 *211:11 *159:12 7.49100023e-05

*RES
1 *211:5 *528:A1 1.39999998
2 *211:6 *211:5 0.248572
3 *211:8 *211:6 1.39999998
4 *211:14 *563:Y 0.386658
5 *211:8 *211:7 0.745715
6 *211:15 *211:14 1.39999998
7 *211:13 *211:7 1.39999998
8 *211:13 *211:15 0.372858
9 *211:11 *211:13 0.745715
10 *211:12 *211:11 1.39999998
11 *211:10 *211:12 0.994287
12 *211:3 *211:10 1.39999998
13 *211:4 *544:A1 1.39999998
14 *211:4 *211:3 0.124286
15 *211:9 *211:4 0.0643219
*END

*D_NET *212 0.000500099

*CONN
*I *562:Y O *C 52.7175 19.575 *L 0 *D INVXL
*I *534:A1 I *C 55.535 19.285 *L 0.00279 *D AOI211X1

*CAP
1 *562:Y 5.21806e-05
2 *534:A1 3.6799e-05
3 *212:2 7.24796e-05
4 *212:3 5.07213e-05
5 *212:4 0.00012768
6 *212:5 4.16404e-05
7 *212:6 0.000118599

*RES
1 *212:5 *534:A1 1.39999998
2 *212:5 *212:6 0.248572
3 *212:4 *212:6 0.745715
4 *212:3 *212:4 0.248572
5 *212:2 *212:3 1.39999998
6 *562:Y *212:2 0.773337
*END

*D_NET *213 0.000465361

*CONN
*I *561:Y O *C 28.3575 14.065 *L 0 *D INVX1
*I *544:B1 I *C 30.595 14.355 *L 0.00282 *D OAI22X1

*CAP
1 *561:Y 5.16396e-05
2 *544:B1 3.68004e-05
3 *213:2 4.00003e-05
4 *213:3 5.44904e-05
5 *213:4 7.194e-05
6 *213:5 4.60807e-05
7 *213:6 4.60807e-05
8 *213:7 6.64096e-05
9 *213:8 5.19206e-05

*RES
1 *213:8 *544:B1 1.39999998
2 *213:7 *213:8 0.372858
3 *213:6 *213:7 0.248572
4 *213:5 *213:6 0.124286
5 *213:3 *213:5 0.248572
6 *213:3 *213:2 0.248572
7 *213:4 *213:2 1.39999998
8 *561:Y *213:4 0.773337
*END

*D_NET *214 0.00066362

*CONN
*I *560:Y O *C 18.4975 34.945 *L 0 *D INVX1
*I *543:A1 I *C 21.315 32.625 *L 0.00276 *D OAI22X1

*CAP
1 *560:Y 3.67998e-05
2 *543:A1 3.67998e-05
3 *214:2 0.00014801
4 *214:3 0.00014801
5 *214:4 4.25409e-05
6 *214:5 4.25409e-05
7 *214:6 0.00010446
8 *214:7 0.00010446

*RES
1 *214:5 *543:A1 1.39999998
2 *214:5 *214:4 0.372858
3 *214:2 *214:4 1.39999998
4 *214:3 *214:2 1.24286
5 *214:7 *560:Y 1.39999998
6 *214:6 *214:3 1.39999998
7 *214:6 *214:7 0.621429
*END

*D_NET *215 0.00046162

*CONN
*I *559:Y O *C 50.8125 32.915 *L 0 *D INVX1
*I *539:B1 I *C 50.025 34.945 *L 0.00162 *D AOI222XL

*CAP
1 *559:Y 3.67988e-05
2 *539:B1 1.64012e-05
3 *215:2 0.00014722
4 *215:3 0.00014722
5 *215:4 5.50399e-05
6 *215:5 5.89397e-05

*RES
1 *215:3 *559:Y 1.39999998
2 *215:3 *215:2 0.994287
3 *215:5 *215:2 1.39999998
4 *215:4 *215:5 0.580008
5 *539:B1 *215:4 0.193329
*END

*D_NET *216 0.000968009

*CONN
*I *558:Y O *C 55.4525 14.065 *L 0 *D INVX1
*I *538:A1 I *C 50.605 12.035 *L 0.00161 *D AOI222XL

*CAP
1 *558:Y 3.67983e-05
2 *538:A1 3.67983e-05
3 *216:2 6.76095e-05
4 *216:3 6.64396e-05
5 *216:4 3.9099e-05
6 *216:5 0.00025729
7 *216:6 0.00010334
8 *216:7 0.00025729
9 *216:8 0.00010334

*RES
1 *216:8 *558:Y 1.4
2 *216:6 *216:8 0.497143
3 *216:7 *216:6 1.4
4 *216:5 *216:7 1.98857141
5 *216:2 *216:5 1.4
6 *216:3 *216:2 0.372857
7 *216:4 *216:3 0.124286
8 *538:A1 *216:4 1.4
*END

*D_NET *217 0.0003899

*CONN
*I *557:Y O *C 29.9325 16.965 *L 0 *D INVXL
*I *527:A1 I *C 28.565 16.965 *L 0.00169 *D OAI211XL

*CAP
1 *557:Y 3.84799e-05
2 *527:A1 3.67996e-05
3 *217:2 6.361e-05
4 *217:3 7.8100293e-05
5 *217:4 6.57599e-05
6 *217:5 4.6331e-05
7 *217:6 6.08201e-05

*RES
1 *217:4 *557:Y 0.580008
2 *217:5 *217:4 1.39999998
3 *217:5 *217:6 0.248572
4 *217:3 *217:6 0.248572
5 *217:2 *217:3 0.248572
6 *527:A1 *217:2 1.39999998
*END

*D_NET *218 0.00042517

*CONN
*I *556:Y O *C 20.2375 32.915 *L 0 *D INVX1
*I *543:B1 I *C 21.895 32.625 *L 0.00282 *D OAI22X1

*CAP
1 *556:Y 3.67998e-05
2 *543:B1 3.67998e-05
3 *218:3 3.24496e-05
4 *218:4 9.71e-05
5 *218:5 6.24605e-05
6 *218:6 6.24605e-05
7 *218:7 9.71e-05

*RES
1 *218:5 *543:B1 1.39999998
2 *218:5 *218:6 0.248572
3 *218:7 *218:6 1.39999998
4 *218:4 *218:7 0.745715
5 *218:3 *218:4 1.39999998
6 *218:3 *556:Y 1.39999998
7 *218:2 *218:3 0.193051
*END

*D_NET *219 0.000610069

*CONN
*I *555:Y O *C 15.3075 30.015 *L 0 *D INVXL
*I *540:B1 I *C 18.995 30.015 *L 0.00282 *D OAI22X1

*CAP
1 *555:Y 3.68011e-05
2 *540:B1 3.68011e-05
3 *219:2 0.00021249
4 *219:3 0.00021249
5 *219:6 3.95182e-05
6 *219:7 3.95182e-05
7 *219:8 3.24498e-05

*RES
1 *219:8 *540:B1 1.39999
2 *219:5 *219:8 0.193064
3 *219:2 *219:8 1.39999
4 *219:3 *219:2 1.61571431
5 *219:7 *219:3 1.39999
6 *219:6 *219:7 0.12428
7 *219:6 *555:Y 1.39999
8 *219:4 *219:6 0.0643219
*END

*D_NET *220 0.00375953

*CONN
*I *554:Y O *C 19.285 12.325 *L 0 *D NAND2XL
*I *542:B I *C 20.735 14.355 *L 0.00167 *D NAND2XL
*I *531:A I *C 32.335 29.725 *L 0.00273 *D NOR4X1
*I *522:B I *C 25.375 11.745 *L 0.00173 *D MXI2X2

*CAP
1 *554:Y 3.68012e-05
2 *542:B 3.68012e-05
3 *531:A 3.68012e-05
4 *522:B 3.68012e-05
5 *220:4 0.000135135
6 *220:5 0.000149572
7 *220:6 0.000146092
8 *220:7 0.00013166
9 *220:8 7.21276e-05
10 *220:9 7.21276e-05
11 *220:10 0.000174067
12 *220:11 0.000174067
13 *220:12 6.53527e-05
14 *220:13 0.000114138
15 *220:14 8.12473e-05
16 *220:15 5.40462e-05
17 *220:16 5.40462e-05
18 *220:17 4.35139e-05
19 *220:18 4.35139e-05
20 *220:19 0.000127541
21 *220:20 0.000127541
22 *220:21 0.000170411
23 *220:22 0.000180638
24 *220:23 4.31296e-05
25 *220:24 5.85722e-05
26 *220:25 5.94763e-05
27 *220:26 0.0003703
28 *220:27 0.000369419
29 *220:28 0.000128841
30 *220:29 0.000145481
31 *220:30 0.00015225
32 *220:31 0.000168009

*RES
1 *220:17 *531:A 1.40002
2 *220:18 *220:17 0.372869
3 *220:19 *220:18 1.40002
4 *220:20 *220:19 1.11855
5 *220:26 *220:20 1.40002
6 *220:27 *220:26 3.35571432
7 *220:27 *220:28 0.124272
8 *220:7 *522:B 1.40002
9 *220:29 *220:28 1.11855
10 *220:7 *220:6 0.745737
11 *220:31 *220:29 0.248596
12 *220:6 *220:5 0.248596
13 *220:30 *220:31 1.36715
14 *220:5 *220:4 0.745737
15 *220:21 *220:30 1.40002
16 *220:22 *220:4 1.40002
17 *220:22 *220:21 1.49142
18 *220:23 *220:22 0.372869
19 *220:10 *220:23 0.124272
20 *220:11 *220:10 1.49142
21 *220:11 *220:24 0.124272
22 *220:25 *220:24 0.372869
23 *220:12 *220:25 1.40002
24 *220:13 *542:B 1.40002
25 *220:13 *220:12 0.372869
26 *220:14 *220:13 0.497141
27 *220:8 *220:14 1.40002
28 *220:9 *220:8 0.621413
29 *220:15 *220:9 1.40002
30 *220:16 *220:15 0.372869
31 *554:Y *220:16 1.40002
*END

*D_NET *221 0.00090477

*CONN
*I *553:Y O *C 15.225 14.645 *L 0 *D NOR2XL
*I *537:A1 I *C 16.095 12.325 *L 0.00279 *D AOI22X1
*I *523:B I *C 13.2 11.405 *L 0.00164 *D MXI2XL

*CAP
1 *553:Y 6.41408e-05
2 *537:A1 3.67987e-05
3 *523:B 3.67987e-05
4 *221:3 9.4471e-05
5 *221:4 5.21793e-05
6 *221:5 0.00014869
7 *221:6 0.00014869
8 *221:8 8.918e-05
9 *221:9 6.56791e-05
10 *221:10 8.44403e-05
11 *221:11 5.12491e-05
12 *221:12 3.24493e-05

*RES
1 *221:10 *553:Y 0.966666
2 *221:11 *221:10 1.39999998
3 *221:9 *221:11 0.372858
4 *221:4 *523:B 1.39999998
5 *221:8 *221:9 0.248572
6 *221:4 *221:3 0.372858
7 *221:3 *221:8 0.621429
8 *221:6 *221:3 1.39999998
9 *221:6 *221:5 1.24286
10 *221:12 *537:A1 1.39999998
11 *221:12 *221:5 1.39999998
12 *221:7 *221:12 0.193051
*END

*D_NET *222 0.000508081

*CONN
*I *552:Y O *C 16.385 6.235 *L 0 *D NOR2XL
*I *525:A0 I *C 17.545 9.135 *L 0.00164 *D OAI21XL

*CAP
1 *552:Y 3.68003e-05
2 *525:A0 5.13207e-05
3 *222:2 0.00015428
4 *222:3 0.00015428
5 *222:4 4.36815e-05
6 *222:5 6.77198e-05

*RES
1 *222:5 *525:A0 0.773337
2 *222:4 *222:5 0.193329
3 *222:2 *222:4 1.39999998
4 *222:3 *222:2 1.24286
5 *552:Y *222:3 1.39999998
*END

*D_NET *223 0.000503941

*CONN
*I *551:Y O *C 23.055 8.555 *L 0 *D NAND2XL
*I *526:B0 I *C 22.185 11.745 *L 0.0017 *D OAI211XL

*CAP
1 *551:Y 3.67995e-05
2 *526:B0 3.67995e-05
3 *223:2 0.000160680557
4 *223:3 0.000114991
5 *223:4 5.44894e-05
6 *223:5 0.000100179

*RES
1 *223:4 *551:Y 1.39999998
2 *223:3 *526:B0 1.39999998
3 *223:4 *223:5 0.372858
4 *223:2 *223:3 0.621429
5 *223:2 *223:5 0.497144
*END

*D_NET *224 0.00101715

*CONN
*I *550:Y O *C 42.195 29.435 *L 0 *D XOR2XL
*I *531:C I *C 33.495 30.015 *L 0.00274 *D NOR4X1

*CAP
1 *550:Y 3.67997e-05
2 *531:C 3.67997e-05
3 *224:2 0.00041964
4 *224:3 0.00041964
5 *224:5 3.59097e-05
6 *224:6 3.59097e-05
7 *224:7 3.24519e-05

*RES
1 *224:6 *531:C 1.39998
2 *224:5 *224:6 0.248568
3 *224:3 *224:5 1.39998
4 *224:3 *224:2 3.72857141
5 *224:7 *224:2 1.39998
6 *224:7 *550:Y 1.39998
7 *224:4 *224:7 0.19304
*END

*D_NET *225 0.000884318

*CONN
*I *549:Y O *C 54.665 39.875 *L 0 *D XOR2XL
*I *535:B0 I *C 51.185 38.135 *L 0.00277 *D AOI211X1

*CAP
1 *549:Y 3.67996e-05
2 *535:B0 3.67996e-05
3 *225:2 7.07308e-05
4 *225:3 7.07308e-05
5 *225:4 7.39095e-05
6 *225:5 7.39095e-05
7 *225:6 0.00026072
8 *225:7 0.00026072

*RES
1 *225:4 *549:Y 1.39999
2 *225:5 *225:4 0.497135
3 *225:7 *225:5 1.39999
4 *225:6 *225:7 1.49142861
5 *225:2 *225:6 1.39999
6 *225:3 *225:2 0.372857
7 *535:B0 *225:3 1.39999
*END

*D_NET *226 0.000230129

*CONN
*I *548:Y O *C 52.345 38.425 *L 0 *D XOR2XL
*I *535:C0 I *C 51.765 38.135 *L 0.00281 *D AOI211X1

*CAP
1 *548:Y 3.67999e-05
2 *535:C0 3.67999e-05
3 *226:2 4.36396e-05
4 *226:3 5.81296338e-05
5 *226:4 5.47599e-05

*RES
1 *226:2 *548:Y 1.39999998
2 *226:3 *226:2 0.248572
3 *226:4 *226:3 0.248572
4 *535:C0 *226:4 1.39999998
*END

*D_NET *227 0.000342771

*CONN
*I *547:Y O *C 56.985 18.995 *L 0 *D XOR2XL
*I *534:B0 I *C 55.245 19.285 *L 0.00277 *D AOI211X1

*CAP
1 *547:Y 2.58197e-05
2 *534:B0 3.68002e-05
3 *227:4 3.24502e-05
4 *227:5 7.013e-05
5 *227:6 4.61198e-05
6 *227:7 3.06599e-05
7 *227:8 3.06599e-05
8 *227:9 7.013e-05

*RES
1 *227:6 *547:Y 0.386658
2 *227:7 *227:6 1.39999998
3 *227:3 *227:8 0.18284
4 *227:7 *227:8 0.124286
5 *227:9 *227:8 1.39999998
6 *227:5 *227:9 0.497144
7 *227:4 *534:B0 1.39999998
8 *227:4 *227:5 1.39999998
9 *227:2 *227:4 0.193051
*END

*D_NET *228 0.00028815

*CONN
*I *546:Y O *C 54.375 17.545 *L 0 *D XOR2XL
*I *534:C0 I *C 54.665 19.285 *L 0.00281 *D AOI211X1

*CAP
1 *546:Y 3.67999e-05
2 *534:C0 3.67999e-05
3 *228:2 3.90699e-05
4 *228:3 8.71403e-05
5 *228:4 8.834e-05

*RES
1 *228:4 *534:C0 1.39999998
2 *228:3 *228:4 0.870001
3 *228:2 *228:3 0.124286
4 *546:Y *228:2 1.39999998
*END

*D_NET *229 0.00063431

*CONN
*I *545:Y O *C 38.715 24.215 *L 0 *D CLKXOR2X1
*I *529:B0 I *C 34.945 24.505 *L 0.00277 *D AOI211X1

*CAP
1 *545:Y 3.6801e-05
2 *529:B0 3.6801e-05
3 *229:2 0.0002026
4 *229:3 0.0002026
5 *229:4 6.15297e-05
6 *229:5 6.15297e-05
7 *229:7 3.24481e-05

*RES
1 *229:4 *529:B0 1.39999
2 *229:5 *229:4 0.24856
3 *229:3 *229:5 1.39999
4 *229:3 *229:2 1.61571431
5 *229:7 *229:2 1.39999
6 *229:7 *545:Y 1.39999
7 *229:6 *229:7 0.193064
*END

*D_NET *230 0.00050349

*CONN
*I *544:Y O *C 30.885 14.935 *L 0 *D OAI22X1
*I *528:B0 I *C 32.045 17.255 *L 0.00277 *D AOI211X1

*CAP
1 *544:Y 3.67994e-05
2 *528:B0 3.67994e-05
3 *230:2 0.00010338
4 *230:3 0.00010338
5 *230:5 3.24503e-05
6 *230:6 5.98495e-05
7 *230:7 5.91696e-05
8 *230:8 3.54901e-05
9 *230:9 3.617e-05

*RES
1 *230:2 *528:B0 1.39999998
2 *230:3 *230:2 0.621429
3 *230:9 *230:3 1.39999998
4 *230:8 *230:9 0.248572
5 *230:7 *230:8 0.124286
6 *230:6 *230:7 0.248572
7 *230:5 *230:6 1.39999998
8 *230:5 *544:Y 1.39999998
9 *230:4 *230:5 0.193051
*END

*D_NET *231 0.00099533

*CONN
*I *543:Y O *C 21.605 32.045 *L 0 *D OAI22X1
*I *536:C0 I *C 25.375 30.015 *L 0.00277 *D AOI221X1

*CAP
1 *543:Y 3.67998e-05
2 *536:C0 3.67998e-05
3 *231:2 0.00014159
4 *231:3 0.00014159
5 *231:4 0.00030305
6 *231:5 0.00030305
7 *231:7 3.24483e-05

*RES
1 *231:3 *536:C0 1.39999
2 *231:3 *231:2 0.745705
3 *231:4 *231:2 1.39999
4 *231:5 *231:4 1.61571431
5 *231:7 *231:5 1.39999
6 *231:7 *543:Y 1.39999
7 *231:6 *231:7 0.193064
*END

*D_NET *232 0.000360109

*CONN
*I *542:Y O *C 20.735 13.775 *L 0 *D NAND2XL
*I *521:B I *C 22.76 14.695 *L 0.00164 *D MXI2XL

*CAP
1 *542:Y 2.63e-05
2 *521:B 3.67997e-05
3 *232:2 4.65989e-05
4 *232:3 8.59606e-05
5 *232:4 0.000105069941
6 *232:5 5.93801e-05

*RES
1 *232:5 *521:B 1.39999998
2 *232:4 *232:5 0.248572
3 *232:3 *232:4 0.497144
4 *232:2 *232:3 1.39999998
5 *542:Y *232:2 0.386658
*END

*D_NET *233 0.0004382

*CONN
*I *541:Y O *C 14.385 8.76 *L 0 *D OAI2BB1XL
*I *524:B I *C 12.61 9.475 *L 0.00164 *D MXI2XL

*CAP
1 *541:Y 2.56592e-05
2 *524:B 3.67998e-05
3 *233:2 5.99696e-05
4 *233:3 0.000121299521
5 *233:4 4.596e-05
6 *233:5 4.35908e-05
7 *233:6 0.000104921

*RES
1 *233:4 *541:Y 0.386658
2 *233:5 *233:4 1.39999998
3 *233:5 *233:6 0.248572
4 *233:3 *233:6 0.621429
5 *233:2 *233:3 0.248572
6 *524:B *233:2 1.39999998
*END

*D_NET *234 0.00175671

*CONN
*I *540:Y O *C 19.285 30.595 *L 0 *D OAI22X1
*I *531:B I *C 32.915 30.015 *L 0.00273 *D NOR4X1

*CAP
1 *540:Y 3.67989e-05
2 *531:B 3.67989e-05
3 *234:2 0.000166182
4 *234:3 0.000166182
5 *234:4 0.00049992
6 *234:5 0.000499241
7 *234:6 3.55097e-05
8 *234:7 3.55097e-05
9 *234:9 3.24507e-05
10 *234:10 8.17295e-05
11 *234:11 8.10506e-05
12 *234:12 4.26727e-05
13 *234:13 4.26727e-05

*RES
1 *234:7 *531:B 1.40002
2 *234:7 *234:6 0.248564
3 *234:4 *234:6 1.40002
4 *234:5 *234:4 3.85285711
5 *234:5 *234:13 0.124282
6 *234:12 *234:13 0.248564
7 *234:2 *234:12 0.124282
8 *234:3 *234:2 1.36716
9 *234:3 *234:11 0.124282
10 *234:10 *234:11 0.372846
11 *234:9 *234:10 1.40002
12 *234:9 *540:Y 1.40002
13 *234:8 *234:9 0.193066
*END

*D_NET *235 0.00158023

*CONN
*I *539:Y O *C 50.315 34.365 *L 0 *D AOI222XL
*I *532:B I *C 51.185 24.215 *L 0.00158 *D NAND4XL

*CAP
1 *539:Y 3.67998e-05
2 *532:B 3.67998e-05
3 *235:2 0.000110051
4 *235:3 0.000110051
5 *235:4 7.78212e-05
6 *235:5 7.78212e-05
7 *235:6 0.000287931
8 *235:7 0.0002891
9 *235:8 0.000177752
10 *235:9 0.000177752
11 *235:10 7.96299e-05
12 *235:11 3.90981e-05
13 *235:12 7.96299e-05

*RES
1 *235:7 *532:B 1.39999
2 *235:7 *235:6 1.49142861
3 *235:9 *235:6 0.124278
4 *235:9 *235:8 1.36715
5 *235:8 *235:5 0.124278
6 *235:5 *235:4 0.372857
7 *235:11 *235:4 0.124278
8 *235:12 *235:11 1.39999
9 *235:10 *235:12 0.248579
10 *235:2 *539:Y 1.39999
11 *235:3 *235:10 1.39999
12 *235:3 *235:2 0.994293
*END

*D_NET *236 0.00129892

*CONN
*I *538:Y O *C 50.315 12.615 *L 0 *D AOI222XL
*I *532:A I *C 51.475 24.215 *L 0.00152 *D NAND4XL

*CAP
1 *538:Y 3.68009e-05
2 *532:A 1.31401e-05
3 *236:2 0.000190189
4 *236:3 0.00025283
5 *236:4 7.01103e-05
6 *236:5 6.89414e-05
7 *236:6 7.04691e-05
8 *236:7 0.000131938
9 *236:8 4.04196e-05
10 *236:9 0.00021204
11 *236:10 0.00021204

*RES
1 *532:A *236:8 0.193351
2 *236:4 *236:8 1.40001
3 *236:5 *236:4 0.372865
4 *236:5 *236:10 0.124276
5 *236:9 *236:10 2.3614285
6 *236:2 *236:9 0.124276
7 *236:3 *236:2 1.98856
8 *236:7 *236:3 0.621417
9 *236:6 *236:7 0.372865
10 *538:Y *236:6 1.40001
*END

*D_NET *237 0.00100454

*CONN
*I *537:Y O *C 16.385 12.325 *L 0 *D AOI22X1
*I *526:A1 I *C 21.895 11.745 *L 0.00169 *D OAI211XL

*CAP
1 *537:Y 3.67989e-05
2 *526:A1 3.67989e-05
3 *237:2 6.12287e-05
4 *237:3 6.12287e-05
5 *237:4 0.00036075
6 *237:5 0.00036075
7 *237:6 4.34871e-05
8 *237:7 4.34871e-05

*RES
1 *237:2 *526:A1 1.40001
2 *237:3 *237:2 0.248588
3 *237:4 *237:3 1.40001
4 *237:5 *237:4 2.3614285
5 *237:7 *537:Y 1.40001
6 *237:6 *237:5 1.40001
7 *237:6 *237:7 0.248588
*END

*D_NET *238 0.00057885

*CONN
*I *536:Y O *C 25.955 29.435 *L 0 *D AOI221X1
*I *533:C0 I *C 30.015 29.725 *L 0.00282 *D OAI221X1

*CAP
1 *536:Y 3.68004e-05
2 *533:C0 3.68004e-05
3 *238:2 3.96702e-05
4 *238:3 3.96702e-05
5 *238:5 3.24506e-05
6 *238:6 0.00019673
7 *238:7 0.00019673

*RES
1 *238:2 *533:C0 1.4
2 *238:3 *238:2 0.248564
3 *238:7 *238:3 1.4
4 *238:6 *238:7 1.74000001
5 *238:5 *238:6 1.4
6 *238:5 *536:Y 1.4
7 *238:4 *238:5 0.193047
*END

*D_NET *239 0.00232977

*CONN
*I *535:Y O *C 51.185 38.425 *L 0 *D AOI211X1
*I *532:D I *C 50.605 24.505 *L 0.00166 *D NAND4XL

*CAP
1 *535:Y 3.6794e-05
2 *532:D 3.2796e-05
3 *239:2 0.000988215
4 *239:3 0.00100387
5 *239:4 4.59389e-05
6 *239:5 7.85664e-05
7 *239:6 4.04244e-05
8 *239:7 6.40755e-05
9 *239:8 3.9107e-05

*RES
1 *239:8 *535:Y 1.40004
2 *239:2 *239:8 0.124255
3 *239:3 *239:2 6.46285725
4 *239:5 *239:3 0.248609
5 *239:5 *239:7 0.248609
6 *239:6 *239:7 1.40004
7 *239:4 *532:D 0.386671
8 *239:4 *239:6 0.193286
*END

*D_NET *240 0.00102865

*CONN
*I *534:Y O *C 55.245 18.995 *L 0 *D AOI211X1
*I *532:C I *C 50.895 24.505 *L 0.00164 *D NAND4XL

*CAP
1 *534:Y 6.58882e-05
2 *532:C 3.67983e-05
3 *240:2 0.000238510039
4 *240:3 0.000238510039
5 *240:4 8.6189e-05
6 *240:6 3.24492e-05
7 *240:7 7.91685e-05
8 *240:8 8.59779e-05
9 *240:9 0.000111581
10 *240:10 5.35724e-05

*RES
1 *240:4 *534:Y 0.773342
2 *240:3 *240:4 1.39999
3 *240:3 *240:2 1.61571431
4 *240:10 *240:2 1.39999
5 *240:8 *240:10 0.372865
6 *240:8 *240:9 0.372865
7 *240:7 *240:9 0.621425
8 *240:6 *532:C 1.39999
9 *240:6 *240:7 1.39999
10 *240:5 *240:6 0.0300037
*END

*D_NET *241 0.00063643

*CONN
*I *533:Y O *C 30.015 30.595 *L 0 *D OAI221X1
*I *531:D I *C 33.785 30.015 *L 0.00283 *D NOR4X1

*CAP
1 *533:Y 3.68e-05
2 *531:D 3.68e-05
3 *241:2 0.0002336
4 *241:3 0.0002336
5 *241:6 3.24513e-05
6 *241:7 3.15922e-05
7 *241:8 3.15922e-05

*RES
1 *241:7 *531:D 1.39999
2 *241:5 *241:7 0.0643124
3 *241:7 *241:8 0.124278
4 *241:2 *241:8 1.39999
5 *241:3 *241:2 1.49142861
6 *241:6 *241:3 1.39999
7 *241:6 *533:Y 1.39999
8 *241:4 *241:6 0.193051
*END

*D_NET *242 0.00198584

*CONN
*I *532:Y O *C 50.315 24.215 *L 0 *D NAND4XL
*I *529:C0 I *C 35.525 24.505 *L 0.00281 *D AOI211X1

*CAP
1 *532:Y 3.67981e-05
2 *529:C0 3.67981e-05
3 *242:2 8.06425e-05
4 *242:3 8.06425e-05
5 *242:4 4.04423e-05
6 *242:5 4.04423e-05
7 *242:6 0.00083503
8 *242:7 0.00083503

*RES
1 *242:3 *532:Y 1.40001
2 *242:3 *242:2 0.372851
3 *242:6 *242:2 1.40001
4 *242:7 *242:6 6.33857155
5 *242:4 *242:7 1.40001
6 *242:5 *529:C0 1.40001
7 *242:5 *242:4 0.124284
8 *242:8 *242:5 0.0643181
*END

*D_NET *243 0.00023608

*CONN
*I *531:Y O *C 33.785 29.435 *L 0 *D NOR4X1
*I *530:B0 I *C 33.785 27.695 *L 0.0028 *D OAI21X1

*CAP
1 *531:Y 3.68e-05
2 *530:B0 3.68e-05
3 *243:2 8.124e-05
4 *243:3 8.124e-05

*RES
1 *243:3 *531:Y 1.39999998
2 *243:2 *243:3 0.870001
3 *530:B0 *243:2 1.39999998
*END

*D_NET *244 0.00163594

*CONN
*I *530:Y O *C 33.495 27.985 *L 0 *D OAI21X1
*I *528:C0 I *C 32.625 17.255 *L 0.00281 *D AOI211X1

*CAP
1 *530:Y 3.68012e-05
2 *528:C0 3.68012e-05
3 *244:2 0.000210291
4 *244:3 0.000211461
5 *244:4 6.40707e-05
6 *244:5 6.29004e-05
7 *244:6 0.00022104
8 *244:7 0.00022104
9 *244:8 7.94813e-05
10 *244:9 7.94813e-05
11 *244:10 7.98287e-05
12 *244:11 8.10025e-05
13 *244:12 4.86197e-05
14 *244:13 7.66683e-05
15 *244:14 7.78387e-05
16 *244:15 4.86197e-05

*RES
1 *244:14 *530:Y 1.39999
2 *244:13 *244:14 0.870009
3 *244:13 *244:2 0.12428
4 *244:3 *244:2 0.870009
5 *244:15 *244:3 1.39999
6 *244:12 *244:15 0.372865
7 *244:11 *244:12 1.39999
8 *244:10 *244:11 0.372865
9 *244:7 *244:10 0.12428
10 *244:6 *244:7 1.61571431
11 *244:6 *244:9 0.12428
12 *244:8 *244:9 0.372865
13 *244:5 *244:8 0.12428
14 *244:4 *244:5 0.24856
15 *528:C0 *244:4 1.39999
*END

*D_NET *245 0.00164932

*CONN
*I *529:Y O *C 34.945 24.215 *L 0 *D AOI211X1
*I *527:B0 I *C 28.275 16.965 *L 0.0017 *D OAI211XL

*CAP
1 *529:Y 3.68009e-05
2 *527:B0 3.68009e-05
3 *245:2 0.000175549
4 *245:3 0.000175549
5 *245:4 0.00020089
6 *245:5 0.00020089
7 *245:6 0.000120109
8 *245:7 0.000119431
9 *245:8 8.12083e-05
10 *245:9 0.00021078
11 *245:10 8.05296e-05
12 *245:11 0.00021078

*RES
1 *245:4 *529:Y 1.40001
2 *245:5 *245:4 1.61572
3 *245:6 *245:5 1.40001
4 *245:7 *245:6 0.869987
5 *245:11 *245:7 0.124284
6 *245:9 *245:11 1.86428571
7 *245:9 *245:10 0.124284
8 *245:8 *245:10 0.372851
9 *245:2 *245:8 1.40001
10 *245:3 *245:2 1.49143
11 *527:B0 *245:3 1.40001
*END

*D_NET *246 0.000623042

*CONN
*I *528:Y O *C 32.045 17.545 *L 0 *D AOI211X1
*I *527:C0 I *C 27.985 16.965 *L 0.0017 *D OAI211XL

*CAP
1 *528:Y 3.6798e-05
2 *527:C0 3.6798e-05
3 *246:2 0.00024227
4 *246:3 0.00024227
5 *246:6 3.24505e-05
6 *246:7 3.24505e-05

*RES
1 *246:5 *246:7 0.193051
2 *246:7 *528:Y 1.40001
3 *246:2 *246:7 1.40001
4 *246:3 *246:2 2.1128571
5 *246:6 *527:C0 1.40001
6 *246:6 *246:3 1.40001
7 *246:4 *246:6 0.193051
*END

*D_NET *247 0.00216386

*CONN
*I *527:Y O *C 28.275 16.385 *L 0 *D OAI211XL
*I *526:C0 I *C 22.475 11.745 *L 0.0017 *D OAI211XL
*I *525:B0 I *C 18.415 9.135 *L 0.00169 *D OAI21XL

*CAP
1 *527:Y 3.67988e-05
2 *526:C0 3.67988e-05
3 *525:B0 3.67988e-05
4 *247:3 7.96089e-05
5 *247:4 7.96089e-05
6 *247:5 4.16391e-05
7 *247:6 4.16391e-05
8 *247:7 0.000150112
9 *247:8 0.000365450391
10 *247:9 0.000249149
11 *247:10 9.0851e-05
12 *247:11 9.0851e-05
13 *247:12 0.000237338
14 *247:13 7.32685e-05
15 *247:14 0.000237338
16 *247:15 7.32685e-05
17 *247:7 *102:4 5.802e-05
18 *247:8 *102:5 5.802e-05
19 *247:8 *102:4 6.364e-05
20 *247:9 *102:5 6.36400012e-05

*RES
1 *247:5 *527:Y 1.40001
2 *247:6 *247:5 0.248568
3 *247:15 *247:6 1.40001
4 *247:13 *247:15 0.497135
5 *247:14 *247:13 1.40001
6 *247:3 *526:C0 1.40001
7 *247:12 *247:14 2.1128571
8 *247:4 *247:3 0.372851
9 *247:7 *247:12 1.40001
10 *247:8 *247:4 1.40001
11 *247:8 *247:7 1.61572
12 *247:9 *247:8 1.74001
13 *247:10 *247:9 1.40001
14 *247:11 *247:10 0.745703
15 *525:B0 *247:11 1.40001
*END

*D_NET *248 0.000718481

*CONN
*I *526:Y O *C 22.185 11.165 *L 0 *D OAI211XL
*I *522:S0 I *C 23.635 11.745 *L 0.00236 *D MXI2X2
*I *521:S0 I *C 23.055 14.355 *L 0.0025 *D MXI2XL

*CAP
1 *526:Y 3.68002e-05
2 *522:S0 3.68002e-05
3 *521:S0 3.68002e-05
4 *248:3 0.00018564
5 *248:4 0.00021487
6 *248:5 4.61904e-05
7 *248:6 6.062e-05
8 *248:7 4.60593e-05
9 *248:8 5.47019e-05

*RES
1 *248:7 *526:Y 1.39999
2 *248:8 *522:S0 1.39999
3 *248:7 *248:4 0.248579
4 *248:4 *248:8 0.248579
5 *248:4 *248:3 1.49142861
6 *248:6 *248:3 0.248579
7 *248:5 *248:6 0.248579
8 *521:S0 *248:5 1.39999
*END

*D_NET *249 0.00138163

*CONN
*I *525:Y O *C 18.705 8.555 *L 0 *D OAI21XL
*I *524:S0 I *C 12.905 9.135 *L 0.0025 *D MXI2XL
*I *523:S0 I *C 12.905 11.745 *L 0.0025 *D MXI2XL

*CAP
1 *525:Y 3.67992e-05
2 *524:S0 3.67992e-05
3 *523:S0 3.67992e-05
4 *249:3 0.00011612
5 *249:4 9.22411e-05
6 *249:5 5.42689e-05
7 *249:6 0.00026787
8 *249:7 0.00026787
9 *249:9 0.00010922
10 *249:10 6.3531e-05
11 *249:11 3.24501e-05
12 *249:6 *134:13 0.00013383
13 *249:7 *134:14 0.000133829994

*RES
1 *249:10 *523:S0 1.40002
2 *249:9 *249:10 0.497158
3 *249:3 *249:9 0.497158
4 *249:4 *524:S0 1.40002
5 *249:4 *249:3 0.372869
6 *249:5 *249:4 0.372869
7 *249:7 *249:5 1.40002
8 *249:7 *249:6 2.73428583
9 *249:11 *249:6 1.40002
10 *249:11 *525:Y 1.40002
11 *249:8 *249:11 0.193047
*END

*D_NET *250 0.000575771

*CONN
*I *524:Y O *C 13.485 8.555 *L 0 *D MXI2XL
*I *520:B I *C 10.295 9.135 *L 0.00171 *D NOR2XL

*CAP
1 *524:Y 3.67994e-05
2 *520:B 3.67994e-05
3 *250:2 3.90315e-05
4 *250:3 3.90315e-05
5 *250:4 0.00019583
6 *250:5 0.00019583
7 *250:8 3.24486e-05

*RES
1 *250:7 *250:8 0.193051
2 *250:8 *524:Y 1.39999998
3 *250:4 *250:8 1.39999998
4 *250:5 *250:4 1.36714
5 *250:3 *250:5 1.39999998
6 *250:2 *520:B 1.39999998
7 *250:3 *250:2 0.124286
8 *250:6 *250:2 0.18284
*END

*D_NET *251 0.00032559

*CONN
*I *523:Y O *C 12.325 12.325 *L 0 *D MXI2XL
*I *519:B I *C 10.295 11.745 *L 0.00171 *D NOR2XL

*CAP
1 *523:Y 3.68001e-05
2 *519:B 3.68001e-05
3 *251:2 7.167e-05
4 *251:3 7.167e-05
5 *251:6 3.24497e-05
6 *251:7 3.81004e-05
7 *251:8 3.81004e-05

*RES
1 *251:8 *523:Y 1.39999998
2 *251:5 *251:7 0.0643219
3 *251:7 *251:8 0.124286
4 *251:2 *251:7 1.39999998
5 *251:3 *251:2 0.870001
6 *251:6 *519:B 1.39999998
7 *251:6 *251:3 1.39999998
8 *251:4 *251:6 0.193051
*END

*D_NET *252 0.000537721

*CONN
*I *522:Y O *C 25.81 12.25 *L 0 *D MXI2X2
*I *517:B I *C 25.375 9.135 *L 0.00171 *D NOR2XL

*CAP
1 *522:Y 3.68e-05
2 *517:B 3.68e-05
3 *252:2 6.24212e-05
4 *252:3 4.79899e-05
5 *252:4 0.00018407
6 *252:5 0.000169642

*RES
1 *252:5 *522:Y 1.39999998
2 *252:4 *252:5 0.870001
3 *252:2 *252:4 0.248572
4 *252:3 *252:2 0.248572
5 *517:B *252:3 1.39999998
*END

*D_NET *253 0.00036821

*CONN
*I *521:Y O *C 23.635 13.775 *L 0 *D MXI2XL
*I *518:B I *C 25.375 14.355 *L 0.00171 *D NOR2XL

*CAP
1 *521:Y 3.67996e-05
2 *518:B 3.67996e-05
3 *253:4 3.24503e-05
4 *253:5 9.063e-05
5 *253:6 4.04492e-05
6 *253:7 9.063e-05
7 *253:8 4.04492e-05

*RES
1 *253:8 *518:B 1.39999998
2 *253:3 *253:6 0.0643219
3 *253:6 *253:8 0.124286
4 *253:7 *253:6 1.39999998
5 *253:5 *253:7 0.745715
6 *253:4 *253:5 1.39999998
7 *253:4 *521:Y 1.39999998
8 *253:2 *253:4 0.193051
*END

*D_NET *254 0.00100282

*CONN
*I *503:A I *C 6.525 6.525 *L 0.00172 *D CLKBUFX2
*I *520:Y O *C 10.005 9.425 *L 0 *D NOR2XL

*CAP
1 *503:A 3.67997e-05
2 *520:Y 3.67997e-05
3 *254:2 0.000174419
4 *254:3 8.56912e-05
5 *254:4 8.56912e-05
6 *254:5 0.000174419
7 *254:6 0.0002045
8 *254:7 0.0002045

*RES
1 *254:7 *520:Y 1.40001
2 *254:4 *503:A 1.40001
3 *254:6 *254:7 1.98858
4 *254:3 *254:4 0.745709
5 *254:5 *254:6 1.40001
6 *254:2 *254:3 1.40001
7 *254:2 *254:5 2.31999993
*END

*D_NET *255 0.000711295

*CONN
*I *504:A I *C 6.525 14.355 *L 0.00172 *D CLKBUFX2
*I *519:Y O *C 10.005 11.455 *L 0 *D NOR2XL

*CAP
1 *504:A 3.6799e-05
2 *519:Y 3.6799e-05
3 *255:2 0.0001007
4 *255:3 0.00016319
5 *255:4 0.0001007
6 *255:5 5.49594e-05
7 *255:6 5.49594e-05
8 *255:7 0.00016319

*RES
1 *255:5 *519:Y 1.39999
2 *255:5 *255:6 0.497135
3 *255:7 *255:6 1.39999
4 *255:4 *504:A 1.39999
5 *255:3 *255:7 1.49142861
6 *255:2 *255:4 0.745714
7 *255:2 *255:3 1.39999
*END

*D_NET *256 0.00252302

*CONN
*I *507:A I *C 7.395 16.965 *L 0.00184 *D DLY1X4
*I *518:Y O *C 25.665 14.645 *L 0 *D NOR2XL

*CAP
1 *507:A 3.67977e-05
2 *518:Y 3.67977e-05
3 *256:2 5.1251e-05
4 *256:3 0.00108873
5 *256:4 5.1251e-05
6 *256:5 8.47261e-05
7 *256:6 8.47261e-05
8 *256:7 0.00108873

*RES
1 *256:5 *518:Y 1.40002
2 *256:5 *256:6 0.621396
3 *256:7 *256:6 1.40002
4 *256:4 *507:A 1.40002
5 *256:3 *256:7 7.82999992
6 *256:2 *256:4 0.372886
7 *256:2 *256:3 1.40002
*END

*D_NET *257 0.000361021

*CONN
*I *517:Y O *C 25.085 9.425 *L 0 *D NOR2XL
*I *515:D I *C 25.085 6.235 *L 0.0016 *D DFFQX1

*CAP
1 *517:Y 3.68008e-05
2 *515:D 3.68008e-05
3 *257:2 0.00014371
4 *257:3 0.00014371

*RES
1 *257:3 *517:Y 1.39999998
2 *257:2 *257:3 1.36714
3 *515:D *257:2 1.39999998
*END

*D_NET *258 0.00151574

*CONN
*I *511:Y O *C 19.285 16.675 *L 0 *D NOR2XL
*I *510:D I *C 10.295 19.865 *L 0.0016 *D DFFQX1

*CAP
1 *511:Y 3.67999e-05
2 *510:D 3.67999e-05
3 *258:2 7.5728e-05
4 *258:3 7.5728e-05
5 *258:4 9.93183e-05
6 *258:5 9.93183e-05
7 *258:6 0.000124751
8 *258:7 0.000125661
9 *258:8 0.0001808
10 *258:9 0.0001808
11 *258:10 0.000240470801
12 *258:11 0.000239561

*RES
1 *258:5 *511:Y 1.39999
2 *258:5 *258:4 0.869992
3 *258:10 *258:4 1.39999
4 *258:11 *258:10 1.36715
5 *258:11 *258:8 0.124278
6 *258:9 *258:8 1.49142861
7 *258:6 *258:9 0.124278
8 *258:2 *510:D 1.39999
9 *258:7 *258:6 0.994293
10 *258:3 *258:2 0.497135
11 *258:3 *258:7 1.39999
*END

*D_NET *259 0.00191677

*CONN
*I *553:B I *C 15.515 14.355 *L 0.00171 *D NOR2XL
*I *542:A I *C 20.155 14.355 *L 0.00157 *D NAND2XL
*I *525:A1 I *C 17.835 9.425 *L 0.00166 *D OAI21XL
*I *512:Y O *C 20.155 8.265 *L 0 *D NAND2BX1
*I *511:B I *C 19.575 16.965 *L 0.00171 *D NOR2XL

*CAP
1 *553:B 3.6802e-05
2 *542:A 3.6802e-05
3 *525:A1 3.6802e-05
4 *512:Y 3.6802e-05
5 *511:B 3.6802e-05
6 *259:5 0.000116689
7 *259:6 0.000116689
8 *259:7 3.95116e-05
9 *259:8 3.95116e-05
10 *259:9 0.00021868
11 *259:10 0.00021868
12 *259:11 0.00013933
13 *259:12 0.000106549
14 *259:17 3.24508e-05
15 *259:18 9.59409e-05
16 *259:19 8.15091e-05
17 *259:20 7.84692e-05
18 *259:21 0.000113599
19 *259:22 0.000112398
20 *259:5 *181:14 0.00011138
21 *259:6 *181:12 0.000111379997

*RES
1 *259:8 *525:A1 1.4
2 *259:14 *259:8 0.0643276
3 *259:8 *259:7 0.124286
4 *259:6 *259:7 1.4
5 *259:6 *259:5 1.11857
6 *259:21 *259:5 1.4
7 *259:16 *259:21 0.193074
8 *259:21 *512:Y 1.4
9 *259:19 *511:B 1.4
10 *259:21 *259:22 0.87
11 *259:18 *259:19 0.621429
12 *259:12 *259:22 0.124286
13 *259:18 *259:20 0.248571
14 *259:11 *542:A 1.4
15 *259:15 *259:11 0.193074
16 *259:12 *259:11 1.11857
17 *259:11 *259:20 0.497143
18 *259:9 *259:11 1.4
19 *259:10 *259:9 1.98857141
20 *259:17 *553:B 1.4
21 *259:17 *259:10 1.4
22 *259:13 *259:17 0.193074
*END

*D_NET *260 0.00075744

*CONN
*I *648:Y O *C 18.9125 19.285 *L 0 *D CLKINVX1
*I *604:D I *C 16.385 16.965 *L 0.00183 *D SDFFQX1

*CAP
1 *648:Y 3.67997e-05
2 *604:D 3.67997e-05
3 *260:2 0.00015359
4 *260:3 0.00015359
5 *260:4 5.15295e-05
6 *260:5 5.15295e-05
7 *260:6 0.0001368
8 *260:7 0.0001368

*RES
1 *260:7 *648:Y 1.39999998
2 *260:6 *260:7 0.621429
3 *260:2 *260:6 1.39999998
4 *260:3 *260:2 1.11857
5 *260:5 *260:3 1.39999998
6 *260:4 *260:5 0.372858
7 *604:D *260:4 1.39999998
*END

*D_NET *261 0.00040583

*CONN
*I *647:Y O *C 20.445 16.675 *L 0 *D NOR2XL
*I *604:SE I *C 18.125 17.255 *L 0.00237 *D SDFFQX1

*CAP
1 *647:Y 3.67998e-05
2 *604:SE 3.67998e-05
3 *261:2 4.42397e-05
4 *261:3 4.42397e-05
5 *261:4 0.00010565
6 *261:5 0.00010565
7 *261:7 3.24503e-05

*RES
1 *261:3 *647:Y 1.39999998
2 *261:3 *261:2 0.248572
3 *261:4 *261:2 1.39999998
4 *261:5 *261:4 0.994287
5 *261:7 *604:SE 1.39999998
6 *261:7 *261:5 1.39999998
7 *261:6 *261:7 0.193051
*END

*D_NET *262 0.00079352

*CONN
*I *646:Y O *C 16.095 29.435 *L 0 *D MXI2XL
*I *622:B I *C 13.775 32.625 *L 0.00171 *D NOR2XL

*CAP
1 *646:Y 3.68001e-05
2 *622:B 3.68001e-05
3 *262:2 0.00013495
4 *262:3 0.00013495
5 *262:4 9.63296e-05
6 *262:5 9.63296e-05
7 *262:6 0.00012868
8 *262:7 0.00012868

*RES
1 *262:6 *646:Y 1.39999998
2 *262:6 *262:7 0.497144
3 *262:2 *262:7 1.39999998
4 *262:5 *622:B 1.39999998
5 *262:3 *262:2 0.994287
6 *262:4 *262:5 0.745715
7 *262:4 *262:3 1.39999998
*END

*D_NET *263 0.000393551

*CONN
*I *645:Y O *C 27.405 33.205 *L 0 *D MXI2XL
*I *628:B I *C 29.725 32.625 *L 0.00171 *D NOR2XL

*CAP
1 *645:Y 3.67998e-05
2 *628:B 3.67998e-05
3 *263:2 3.9521e-05
4 *263:3 3.9521e-05
5 *263:6 3.24499e-05
6 *263:7 0.00010423
7 *263:8 0.00010423

*RES
1 *263:3 *628:B 1.39999998
2 *263:5 *263:3 0.0643219
3 *263:3 *263:2 0.124286
4 *263:8 *263:2 1.39999998
5 *263:7 *263:8 0.994287
6 *263:6 *263:7 1.39999998
7 *263:6 *645:Y 1.39999998
8 *263:4 *263:6 0.193051
*END

*D_NET *264 0.00056673

*CONN
*I *644:Y O *C 42.775 34.655 *L 0 *D MXI2XL
*I *626:B I *C 45.095 35.235 *L 0.00171 *D NOR2XL

*CAP
1 *644:Y 3.68017e-05
2 *626:B 3.68017e-05
3 *264:4 3.24496e-05
4 *264:5 0.00018377
5 *264:6 4.65713e-05
6 *264:7 0.00018377
7 *264:8 4.65713e-05

*RES
1 *264:8 *626:B 1.39999998
2 *264:3 *264:6 0.0643219
3 *264:6 *264:8 0.124286
4 *264:7 *264:6 1.39999998
5 *264:5 *264:7 0.994287
6 *264:4 *264:5 1.39999998
7 *264:4 *644:Y 1.39999998
8 *264:2 *264:4 0.193051
*END

*D_NET *265 0.00038974

*CONN
*I *643:Y O *C 24.795 33.205 *L 0 *D MXI2XL
*I *624:B I *C 25.665 35.235 *L 0.00171 *D NOR2XL

*CAP
1 *643:Y 3.67993e-05
2 *624:B 3.67993e-05
3 *265:2 4.35299e-05
4 *265:3 7.36807e-05
5 *265:4 0.00011454
6 *265:5 8.4391e-05

*RES
1 *265:5 *624:B 1.39999998
2 *265:4 *265:5 0.745715
3 *265:3 *265:4 0.372858
4 *265:2 *265:3 0.248572
5 *643:Y *265:2 1.39999998
*END

*D_NET *266 0.000442069

*CONN
*I *642:Y O *C 59.595 17.545 *L 0 *D MXI2XL
*I *627:B I *C 61.335 16.965 *L 0.00171 *D NOR2XL

*CAP
1 *642:Y 3.67994e-05
2 *627:B 3.67994e-05
3 *266:4 3.80998e-05
4 *266:5 0.00012991
5 *266:6 3.80998e-05
6 *266:7 3.24502e-05
7 *266:8 0.00012991

*RES
1 *266:7 *627:B 1.39999998
2 *266:3 *266:7 0.193051
3 *266:8 *266:7 1.39999998
4 *266:5 *266:8 0.745715
5 *266:4 *266:5 1.39999998
6 *266:4 *266:6 0.124286
7 *266:6 *642:Y 1.39999998
8 *266:2 *266:6 0.18284
*END

*D_NET *267 0.000876623

*CONN
*I *641:Y O *C 46.545 38.425 *L 0 *D MXI2XL
*I *623:B I *C 43.935 35.235 *L 0.00171 *D NOR2XL

*CAP
1 *641:Y 3.67992e-05
2 *623:B 3.67992e-05
3 *267:2 0.000225660664
4 *267:3 0.000225660664
5 *267:5 0.00013633
6 *267:6 3.95195e-05
7 *267:7 0.00013633
8 *267:8 3.95195e-05

*RES
1 *267:3 *623:B 1.39999998
2 *267:3 *267:2 1.11857
3 *267:5 *267:2 1.39999998
4 *267:5 *267:7 1.11857
5 *267:6 *267:7 1.39999998
6 *267:6 *267:8 0.124286
7 *267:8 *641:Y 1.39999998
8 *267:4 *267:8 0.18284
*END

*D_NET *268 0.000427719

*CONN
*I *640:Y O *C 59.595 39.875 *L 0 *D MXI2XL
*I *629:B I *C 59.595 37.845 *L 0.00171 *D NOR2XL

*CAP
1 *640:Y 3.68007e-05
2 *629:B 3.68007e-05
3 *268:2 0.00017706
4 *268:3 0.00017706

*RES
1 *268:3 *640:Y 1.39999998
2 *268:2 *268:3 0.994287
3 *629:B *268:2 1.39999998
*END

*D_NET *269 0.00056556

*CONN
*I *639:Y O *C 31.755 12.325 *L 0 *D MXI2XL
*I *620:B I *C 33.495 11.745 *L 0.00171 *D NOR2XL

*CAP
1 *639:Y 3.68001e-05
2 *620:B 3.68001e-05
3 *269:2 6.12296e-05
4 *269:3 6.12296e-05
5 *269:4 8.16196e-05
6 *269:5 8.16196e-05
7 *269:6 0.00010313
8 *269:7 0.00010313

*RES
1 *269:5 *620:B 1.39999998
2 *269:5 *269:4 0.372858
3 *269:6 *269:4 1.39999998
4 *269:7 *269:6 0.745715
5 *269:2 *269:7 1.39999998
6 *269:3 *269:2 0.248572
7 *639:Y *269:3 1.39999998
*END

*D_NET *270 0.000330739

*CONN
*I *638:Y O *C 49.155 39.875 *L 0 *D MXI2XL
*I *621:B I *C 48.285 40.455 *L 0.00171 *D NOR2XL

*CAP
1 *638:Y 3.67997e-05
2 *621:B 3.67997e-05
3 *270:2 8.63499609e-05
4 *270:3 5.62003e-05
5 *270:4 7.23701e-05
6 *270:5 4.22204e-05

*RES
1 *270:5 *638:Y 1.39999998
2 *270:3 *621:B 1.39999998
3 *270:4 *270:5 0.248572
4 *270:2 *270:3 0.372858
5 *270:2 *270:4 0.372858
*END

*D_NET *271 0.00054116

*CONN
*I *637:Y O *C 16.095 34.655 *L 0 *D MXI2XL
*I *617:B I *C 14.645 35.235 *L 0.00171 *D NOR2XL

*CAP
1 *637:Y 3.68002e-05
2 *617:B 3.68002e-05
3 *271:2 4.71502e-05
4 *271:3 6.16392e-05
5 *271:4 0.00011354
6 *271:5 9.78798e-05
7 *271:6 8.87495e-05
8 *271:7 5.86004e-05

*RES
1 *271:7 *637:Y 1.39999998
2 *271:6 *271:7 0.248572
3 *271:4 *271:6 0.372858
4 *271:4 *271:5 0.621429
5 *271:3 *271:5 0.248572
6 *271:2 *271:3 0.248572
7 *617:B *271:2 1.39999998
*END

*D_NET *272 0.000633101

*CONN
*I *636:Y O *C 27.405 12.325 *L 0 *D MXI2XL
*I *619:B I *C 27.985 9.135 *L 0.00171 *D NOR2XL

*CAP
1 *636:Y 3.67993e-05
2 *619:B 3.67993e-05
3 *272:2 0.00012898
4 *272:3 0.00011449
5 *272:4 0.00015077
6 *272:5 0.00016526

*RES
1 *272:4 *619:B 1.39999998
2 *272:4 *272:5 0.621429
3 *272:3 *636:Y 1.39999998
4 *272:2 *272:5 0.248572
5 *272:2 *272:3 0.621429
*END

*D_NET *273 0.00142688

*CONN
*I *635:Y O *C 47.995 12.325 *L 0 *D MXI2XL
*I *618:B I *C 54.665 11.745 *L 0.00171 *D NOR2XL

*CAP
1 *635:Y 3.68012e-05
2 *618:B 3.68012e-05
3 *273:2 0.00058467
4 *273:3 0.00058467
5 *273:5 6.17367e-05
6 *273:6 6.17367e-05
7 *273:7 3.02349e-05
8 *273:8 3.02349e-05

*RES
1 *273:6 *635:Y 1.40002
2 *273:5 *273:6 0.248581
3 *273:3 *273:5 1.40002
4 *273:3 *273:2 2.85857153
5 *273:7 *273:2 1.40002
6 *273:8 *618:B 1.40002
7 *273:7 *273:8 0.124269
8 *273:4 *273:8 0.182848
*END

*D_NET *274 0.0003256

*CONN
*I *634:Y O *C 34.075 34.655 *L 0 *D MXI2XL
*I *614:B I *C 34.945 35.235 *L 0.00171 *D NOR2XL

*CAP
1 *634:Y 3.67998e-05
2 *614:B 3.67998e-05
3 *274:2 7.35304e-05
4 *274:3 4.33807e-05
5 *274:4 8.262e-05
6 *274:5 5.24704e-05

*RES
1 *274:5 *614:B 1.39999998
2 *274:4 *274:5 0.372858
3 *274:3 *634:Y 1.39999998
4 *274:2 *274:4 0.372858
5 *274:2 *274:3 0.248572
*END

*D_NET *275 0.000447971

*CONN
*I *633:Y O *C 57.855 13.775 *L 0 *D MXI2XL
*I *616:B I *C 59.595 14.355 *L 0.00171 *D NOR2XL

*CAP
1 *633:Y 3.68005e-05
2 *616:B 3.68005e-05
3 *275:3 3.90697e-05
4 *275:4 6.22599e-05
5 *275:5 3.90697e-05
6 *275:6 6.13798e-05
7 *275:7 6.96299e-05
8 *275:8 3.24506e-05
9 *275:9 7.051e-05

*RES
1 *275:5 *633:Y 1.39999998
2 *275:3 *275:5 0.124286
3 *275:4 *275:3 1.39999998
4 *275:4 *275:6 0.372858
5 *275:6 *275:7 0.124286
6 *275:7 *275:9 0.497144
7 *275:8 *616:B 1.39999998
8 *275:8 *275:9 1.39999998
9 *275:2 *275:8 0.193051
*END

*D_NET *276 0.000443961

*CONN
*I *632:Y O *C 38.425 34.655 *L 0 *D MXI2XL
*I *625:B I *C 40.165 35.235 *L 0.00171 *D NOR2XL

*CAP
1 *632:Y 3.68004e-05
2 *625:B 3.68004e-05
3 *276:2 0.000121339
4 *276:3 4.42108e-05
5 *276:4 0.00014097
6 *276:5 6.38414e-05

*RES
1 *276:5 *625:B 1.39999998
2 *276:4 *276:5 0.372858
3 *276:3 *632:Y 1.39999998
4 *276:2 *276:4 0.745715
5 *276:2 *276:3 0.248572
*END

*D_NET *277 0.00076944

*CONN
*I *631:Y O *C 38.425 27.985 *L 0 *D MXI2XL
*I *615:B I *C 41.615 30.015 *L 0.00171 *D NOR2XL

*CAP
1 *631:Y 3.67989e-05
2 *615:B 3.67989e-05
3 *277:2 0.00019111
4 *277:3 0.00019111
5 *277:4 6.85996e-05
6 *277:5 6.85996e-05
7 *277:6 8.82107e-05
8 *277:7 8.82107e-05

*RES
1 *277:7 *615:B 1.39999998
2 *277:6 *277:7 0.497144
3 *277:2 *277:6 1.39999998
4 *277:3 *277:2 1.36714
5 *277:4 *277:3 1.39999998
6 *277:5 *277:4 0.497144
7 *631:Y *277:5 1.39999998
*END

*D_NET *278 0.000451759

*CONN
*I *630:Y O *C 57.275 12.325 *L 0 *D MXI2XL
*I *613:B I *C 58.145 11.745 *L 0.00171 *D NOR2XL

*CAP
1 *630:Y 3.68e-05
2 *613:B 3.68e-05
3 *278:2 7.612e-05
4 *278:3 7.73198926e-05
5 *278:4 6.248e-05
6 *278:5 4.68497e-05
7 *278:6 6.49105e-05
8 *278:7 5.048e-05

*RES
1 *278:7 *613:B 1.39999998
2 *278:6 *278:7 0.497144
3 *278:4 *278:6 0.248572
4 *278:4 *278:5 0.248572
5 *278:3 *630:Y 1.39999998
6 *278:2 *278:5 0.124286
7 *278:2 *278:3 0.372858
*END

*D_NET *279 0.000734792

*CONN
*I *629:Y O *C 59.885 37.555 *L 0 *D NOR2XL
*I *606:D I *C 61.045 40.745 *L 0.0016 *D DFFQX1

*CAP
1 *629:Y 3.68e-05
2 *606:D 3.68e-05
3 *279:2 0.000117850391
4 *279:3 0.000117850391
5 *279:4 9.89001e-05
6 *279:5 0.000100071
7 *279:6 9.37103e-05
8 *279:7 9.37103e-05
9 *279:8 3.91e-05

*RES
1 *279:8 *606:D 1.39999998
2 *279:8 *279:4 0.124286
3 *279:5 *279:4 0.745715
4 *279:6 *279:5 1.39999998
5 *279:7 *279:6 0.621429
6 *279:2 *279:7 1.39999998
7 *279:3 *279:2 0.621429
8 *629:Y *279:3 1.39999998
*END

*D_NET *280 0.000515732

*CONN
*I *628:Y O *C 30.015 32.335 *L 0 *D NOR2XL
*I *596:D I *C 31.175 35.525 *L 0.0016 *D DFFQX1

*CAP
1 *628:Y 3.68008e-05
2 *596:D 3.68008e-05
3 *280:2 3.91001e-05
4 *280:3 0.0001263
5 *280:4 0.00015762
6 *280:5 7.46311e-05
7 *280:6 4.44804e-05

*RES
1 *280:6 *596:D 1.39999998
2 *280:5 *280:6 0.248572
3 *280:4 *280:5 0.372858
4 *280:3 *280:4 1.11857
5 *280:2 *280:3 0.124286
6 *628:Y *280:2 1.39999998
*END

*D_NET *281 0.000420779

*CONN
*I *627:Y O *C 61.625 16.675 *L 0 *D NOR2XL
*I *611:D I *C 61.335 19.865 *L 0.0016 *D DFFQX1

*CAP
1 *627:Y 3.67996e-05
2 *611:D 3.67996e-05
3 *281:2 9.10098e-05
4 *281:3 9.221e-05
5 *281:4 8.25803e-05
6 *281:5 8.13801e-05

*RES
1 *281:4 *627:Y 1.39999998
2 *281:3 *611:D 1.39999998
3 *281:4 *281:5 0.621429
4 *281:2 *281:3 0.745715
5 *281:2 *281:5 0.124286
*END

*D_NET *282 0.000889619

*CONN
*I *626:Y O *C 45.385 35.525 *L 0 *D NOR2XL
*I *610:D I *C 49.445 32.335 *L 0.0016 *D DFFQX1

*CAP
1 *626:Y 6.56897e-05
2 *610:D 3.67996e-05
3 *282:2 0.00011591
4 *282:3 0.00011591
5 *282:4 0.00016138
6 *282:5 0.00016138
7 *282:6 7.32791e-05
8 *282:7 8.59905e-05
9 *282:8 7.32791e-05

*RES
1 *282:3 *610:D 1.39999998
2 *282:3 *282:2 0.870001
3 *282:4 *282:2 1.39999998
4 *282:5 *282:4 1.24286
5 *282:6 *282:5 1.39999998
6 *282:6 *282:8 0.497144
7 *282:7 *282:8 1.39999998
8 *626:Y *282:7 0.773337
*END

*D_NET *283 0.000419119

*CONN
*I *625:Y O *C 40.455 35.525 *L 0 *D NOR2XL
*I *609:D I *C 39.005 37.555 *L 0.0016 *D DFFQX1

*CAP
1 *625:Y 3.68009e-05
2 *609:D 3.68009e-05
3 *283:2 4.15286e-05
4 *283:3 0.000103
5 *283:4 6.97591e-05
6 *283:5 0.00013123

*RES
1 *283:4 *625:Y 1.39999998
2 *283:2 *609:D 1.39999998
3 *283:4 *283:5 0.621429
4 *283:3 *283:2 0.248572
5 *283:3 *283:5 0.621429
*END

*D_NET *284 0.0001566

*CONN
*I *624:Y O *C 25.375 35.525 *L 0 *D NOR2XL
*I *608:D I *C 23.925 35.525 *L 0.0016 *D DFFQX1

*CAP
1 *284:2 7.83e-05
2 *284:3 7.83e-05

*RES
1 *284:3 *624:Y 1.39999998
2 *284:2 *284:3 0.621429
3 *608:D *284:2 1.39999998
*END

*D_NET *285 0.000670239

*CONN
*I *623:Y O *C 43.645 35.525 *L 0 *D NOR2XL
*I *607:D I *C 41.035 37.555 *L 0.0016 *D DFFQX1

*CAP
1 *623:Y 3.67998e-05
2 *607:D 3.67998e-05
3 *285:2 8.21287e-05
4 *285:3 8.21287e-05
5 *285:4 0.00015701
6 *285:5 0.00015701
7 *285:6 5.91791e-05
8 *285:7 5.91791e-05

*RES
1 *285:6 *623:Y 1.39999998
2 *285:6 *285:7 0.248572
3 *285:4 *285:7 1.39999998
4 *285:2 *607:D 1.39999998
5 *285:5 *285:4 1.11857
6 *285:3 *285:2 0.621429
7 *285:3 *285:5 1.39999998
*END

*D_NET *286 0.0001566

*CONN
*I *622:Y O *C 13.485 32.335 *L 0 *D NOR2XL
*I *612:D I *C 12.035 32.335 *L 0.0016 *D DFFQX1

*CAP
1 *286:2 7.83e-05
2 *286:3 7.83e-05

*RES
1 *286:3 *622:Y 1.39999998
2 *286:2 *286:3 0.621429
3 *612:D *286:2 1.39999998
*END

*D_NET *287 0.00108145

*CONN
*I *621:Y O *C 47.995 40.745 *L 0 *D NOR2XL
*I *598:D I *C 42.485 40.745 *L 0.0016 *D DFFQX1

*CAP
1 *621:Y 3.67989e-05
2 *598:D 3.67989e-05
3 *287:2 0.00028302
4 *287:3 0.000282342
5 *287:6 3.245e-05
6 *287:7 0.000174709
7 *287:8 0.000174031
8 *287:9 3.06492e-05
9 *287:10 3.06492e-05

*RES
1 *287:5 *287:9 0.0643124
2 *287:9 *621:Y 1.39999
3 *287:9 *287:10 0.124278
4 *287:2 *287:10 1.39999
5 *287:3 *287:2 1.49142861
6 *287:8 *287:3 0.124278
7 *287:7 *287:8 0.869992
8 *287:6 *598:D 1.39999
9 *287:6 *287:7 1.39999
10 *287:4 *287:6 0.193051
*END

*D_NET *288 0.00040208

*CONN
*I *620:Y O *C 33.785 11.455 *L 0 *D NOR2XL
*I *605:D I *C 34.655 9.425 *L 0.0016 *D DFFQX1

*CAP
1 *620:Y 3.89602e-05
2 *605:D 3.67996e-05
3 *288:2 0.000113639648
4 *288:3 4.36802e-05
5 *288:4 0.000113639648
6 *288:5 5.53606e-05

*RES
1 *288:2 *605:D 1.39999998
2 *288:2 *288:4 0.745715
3 *288:3 *288:4 1.39999998
4 *288:3 *288:5 0.193329
5 *620:Y *288:5 0.580008
*END

*D_NET *289 0.00095717

*CONN
*I *619:Y O *C 28.275 9.425 *L 0 *D NOR2XL
*I *595:D I *C 31.465 6.525 *L 0.00216 *D DFFHQX1

*CAP
1 *619:Y 3.8641e-05
2 *595:D 3.67986e-05
3 *289:2 9.69293e-05
4 *289:3 9.69293e-05
5 *289:4 0.000227810195
6 *289:5 5.89383e-05
7 *289:6 6.65198e-05
8 *289:7 6.76913e-05
9 *289:8 0.000227810195
10 *289:9 3.90999e-05

*RES
1 *289:9 *595:D 1.39999998
2 *289:6 *289:9 0.124286
3 *289:6 *289:7 0.497144
4 *289:8 *289:7 1.39999998
5 *289:4 *289:8 0.870001
6 *289:3 *289:4 1.39999998
7 *289:3 *289:2 0.745715
8 *289:5 *289:2 1.39999998
9 *619:Y *289:5 0.580008
*END

*D_NET *290 0.000373131

*CONN
*I *618:Y O *C 54.955 11.455 *L 0 *D NOR2XL
*I *602:D I *C 53.795 9.425 *L 0.0016 *D DFFQX1

*CAP
1 *618:Y 3.68012e-05
2 *602:D 3.68012e-05
3 *290:2 8.59611e-05
4 *290:3 0.00012963
5 *290:4 8.39396e-05

*RES
1 *290:4 *618:Y 1.39999998
2 *290:3 *290:4 0.870001
3 *290:2 *290:3 0.497144
4 *602:D *290:2 1.39999998
*END

*D_NET *291 0.00030718

*CONN
*I *617:Y O *C 14.355 35.525 *L 0 *D NOR2XL
*I *603:D I *C 12.325 35.525 *L 0.0016 *D DFFQX1

*CAP
1 *617:Y 3.89596e-05
2 *603:D 3.68002e-05
3 *291:2 8.608e-05
4 *291:3 5.92597e-05
5 *291:4 8.608e-05

*RES
1 *291:3 *617:Y 0.580008
2 *291:4 *291:3 1.39999998
3 *291:2 *291:4 0.497144
4 *603:D *291:2 1.39999998
*END

*D_NET *292 0.000622083

*CONN
*I *616:Y O *C 59.885 14.645 *L 0 *D NOR2XL
*I *600:D I *C 65.395 14.645 *L 0.0016 *D DFFQX1

*CAP
1 *616:Y 3.67989e-05
2 *600:D 3.67989e-05
3 *292:4 3.2449e-05
4 *292:5 0.00024179
5 *292:6 3.2449e-05
6 *292:7 0.00024179

*RES
1 *292:6 *600:D 1.40001
2 *292:3 *292:6 0.0300151
3 *292:7 *292:6 1.40001
4 *292:5 *292:7 2.3614285
5 *292:4 *292:5 1.40001
6 *292:4 *616:Y 1.40001
7 *292:2 *292:4 0.193062
*END

*D_NET *293 0.000460243

*CONN
*I *615:Y O *C 41.325 30.305 *L 0 *D NOR2XL
*I *599:D I *C 43.355 32.335 *L 0.0016 *D DFFQX1

*CAP
1 *615:Y 3.68005e-05
2 *599:D 3.68005e-05
3 *293:2 4.14087e-05
4 *293:3 0.0001342
5 *293:4 0.00015191
6 *293:5 5.91205e-05

*RES
1 *293:5 *599:D 1.39999998
2 *293:4 *293:5 0.621429
3 *293:3 *293:4 0.870001
4 *293:2 *293:3 0.248572
5 *615:Y *293:2 1.39999998
*END

*D_NET *294 0.000523621

*CONN
*I *614:Y O *C 35.235 35.525 *L 0 *D NOR2XL
*I *597:D I *C 37.265 32.335 *L 0.0016 *D DFFQX1

*CAP
1 *614:Y 5.13211e-05
2 *597:D 3.68004e-05
3 *294:2 0.0001197
4 *294:3 7.16191e-05
5 *294:4 8.95499e-05
6 *294:5 6.224e-05
7 *294:6 9.23901e-05

*RES
1 *294:5 *597:D 1.39999998
2 *294:5 *294:6 0.621429
3 *294:2 *294:6 0.372858
4 *294:2 *294:4 0.745715
5 *294:3 *294:4 1.39999998
6 *614:Y *294:3 0.773337
*END

*D_NET *295 0.000796139

*CONN
*I *613:Y O *C 58.435 11.455 *L 0 *D NOR2XL
*I *601:D I *C 63.945 11.455 *L 0.0016 *D DFFQX1

*CAP
1 *613:Y 3.67981e-05
2 *601:D 3.67981e-05
3 *295:2 0.00032882
4 *295:3 0.00032882
5 *295:6 3.2448e-05
6 *295:7 3.2448e-05

*RES
1 *295:7 *601:D 1.40001
2 *295:5 *295:7 0.193062
3 *295:2 *295:7 1.40001
4 *295:3 *295:2 2.3614285
5 *295:6 *295:3 1.40001
6 *295:6 *613:Y 1.40001
7 *295:4 *295:6 0.193062
*END

*D_NET *296 0.000685258

*CONN
*I *768:Y O *C 54.375 33.495 *L 0 *D NAND2BX1
*I *741:A2 I *C 58.145 32.625 *L 0.00281 *D OAI32X1

*CAP
1 *768:Y 3.67982e-05
2 *741:A2 3.67982e-05
3 *296:2 0.00019308
4 *296:3 0.000192229
5 *296:6 3.24496e-05
6 *296:7 8.11505e-05
7 *296:8 8.0299e-05
8 *296:9 3.24496e-05

*RES
1 *296:9 *741:A2 1.39999998
2 *296:5 *296:9 0.0299927
3 *296:2 *296:9 1.39999998
4 *296:3 *296:2 0.994287
5 *296:8 *296:3 0.124286
6 *296:7 *296:8 0.497144
7 *296:6 *296:7 1.39999998
8 *296:6 *768:Y 1.39999998
9 *296:4 *296:6 0.193051
*END

*D_NET *297 0.000360829

*CONN
*I *767:Y O *C 58.6425 38.135 *L 0 *D INVX1
*I *739:A1 I *C 57.565 37.845 *L 0.00271 *D OAI32X1

*CAP
1 *767:Y 3.68007e-05
2 *739:A1 3.68007e-05
3 *297:2 8.199e-05
4 *297:3 8.199e-05
5 *297:5 3.24494e-05
6 *297:6 4.53995e-05
7 *297:7 4.53995e-05

*RES
1 *297:7 *767:Y 1.39999998
2 *297:6 *297:7 0.248572
3 *297:2 *297:6 1.39999998
4 *297:3 *297:2 0.497144
5 *297:5 *739:A1 1.39999998
6 *297:5 *297:3 1.39999998
7 *297:4 *297:5 0.193051
*END

*D_NET *298 0.00165101

*CONN
*I *765:Y O *C 39.0875 17.255 *L 0 *D CLKINVX1
*I *728:C I *C 43.935 19.575 *L 0.00167 *D OR4XL
*I *719:A0 I *C 36.395 19.575 *L 0.00267 *D OAI211X1

*CAP
1 *765:Y 3.67993e-05
2 *728:C 3.67993e-05
3 *719:A0 3.67993e-05
4 *298:3 4.63403e-05
5 *298:4 4.63403e-05
6 *298:5 3.90205e-05
7 *298:6 5.9249e-05
8 *298:7 3.90205e-05
9 *298:8 4.59806e-05
10 *298:9 4.59806e-05
11 *298:10 0.00014733
12 *298:11 0.00012189
13 *298:11 *112:12 5.379e-05
14 *298:10 *112:13 5.379e-05
15 *298:11 *112:13 1.856e-05
16 *298:10 *112:14 1.856e-05
17 *298:10 *112:15 6.161e-05
18 *298:6 *112:16 6.161e-05
19 *298:3 *112:10 1.256e-05
20 *298:4 *112:11 1.256e-05
21 *298:9 *112:17 1.082e-05
22 *298:8 *112:6 1.082e-05
23 *298:7 *112:17 2.34e-06
24 *298:5 *112:6 2.33999544e-06
25 *298:11 *199:4 0.00020632
26 *298:10 *199:5 0.00020632
27 *298:10 *199:4 0.00010873
28 *298:6 *199:5 0.000108730016

*RES
1 *298:3 *728:C 1.40001
2 *298:4 *298:3 0.372851
3 *298:8 *765:Y 1.40001
4 *298:11 *298:4 1.40001
5 *298:8 *298:9 0.621419
6 *298:10 *298:11 2.1128571
7 *298:10 *298:9 1.40001
8 *298:7 *719:A0 1.40001
9 *298:6 *298:10 1.11859
10 *298:5 *298:7 0.372851
11 *298:5 *298:6 1.40001
*END

*D_NET *299 0.00477107

*CONN
*I *766:Y O *C 45.8825 22.475 *L 0 *D CLKINVX1
*I *763:A I *C 54.375 27.405 *L 0.00157 *D NAND2XL
*I *762:A I *C 46.545 19.575 *L 0.00157 *D NAND2XL
*I *738:B0 I *C 54.665 22.185 *L 0.00279 *D OAI211X1
*I *719:B0 I *C 35.525 19.575 *L 0.00279 *D OAI211X1
*I *702:A0 I *C 33.495 24.795 *L 0.00258 *D AOI32X1

*CAP
1 *766:Y 3.67958e-05
2 *763:A 3.67958e-05
3 *762:A 2.6302e-05
4 *738:B0 3.67958e-05
5 *719:B0 3.67958e-05
6 *702:A0 3.67958e-05
7 *299:6 0.000108661
8 *299:7 6.2971e-05
9 *299:8 0.000340801
10 *299:9 0.000395995
11 *299:10 3.58217e-05
12 *299:11 3.46495e-05
13 *299:12 0.000335946
14 *299:13 0.000362272
15 *299:14 0.00051903
16 *299:15 0.000492031
17 *299:16 0.000127882
18 *299:17 0.000113445
19 *299:18 4.75589e-05
20 *299:21 0.000439293
21 *299:22 0.000439293
22 *299:23 3.24478e-05
23 *299:24 0.000130583
24 *299:25 0.000131747
25 *299:26 7.73377e-05
26 *299:27 7.61656e-05
27 *299:28 4.66006e-05
28 *299:29 3.90292e-05
29 *299:30 3.90292e-05
30 *299:31 0.000132183

*RES
1 *299:10 *763:A 1.39997
2 *299:11 *299:10 0.248568
3 *299:11 *299:8 0.124316
4 *299:9 *738:B0 1.39997
5 *299:9 *299:8 1.98854
6 *299:31 *299:9 0.745703
7 *762:A *299:28 0.386682
8 *299:6 *299:31 0.497135
9 *299:25 *766:Y 1.39997
10 *299:29 *299:28 1.39997
11 *299:20 *299:29 0.0643503
12 *299:7 *299:6 0.248568
13 *299:24 *299:25 0.745703
14 *299:29 *299:30 0.124316
15 *299:12 *299:7 1.39997
16 *299:24 *299:27 0.124316
17 *299:13 *299:30 1.39997
18 *299:13 *299:12 2.73431
19 *299:26 *299:27 0.372884
20 *299:22 *702:A0 1.39997
21 *299:14 *299:13 0.372884
22 *299:14 *299:26 1.39997
23 *299:21 *299:22 2.11286
24 *299:15 *299:14 4.22571421
25 *299:17 *299:21 1.39997
26 *299:18 *299:15 0.124316
27 *299:17 *299:16 0.870019
28 *299:16 *299:18 0.372884
29 *299:23 *719:B0 1.39997
30 *299:23 *299:16 1.39997
31 *299:19 *299:23 0.193051
*END

*D_NET *300 0.000639401

*CONN
*I *764:Y O *C 52.7175 24.505 *L 0 *D INVX1
*I *747:C I *C 53.795 24.795 *L 0.00169 *D OR4X2
*I *738:A0 I *C 53.795 22.185 *L 0.00267 *D OAI211X1

*CAP
1 *764:Y 3.68007e-05
2 *747:C 3.68007e-05
3 *738:A0 3.68007e-05
4 *300:3 4.60197e-05
5 *300:4 4.60197e-05
6 *300:5 5.46996e-05
7 *300:6 0.000130599
8 *300:7 0.00018993
9 *300:8 6.17305e-05

*RES
1 *300:6 *738:A0 1.39999998
2 *300:8 *747:C 1.39999998
3 *300:6 *300:7 0.870001
4 *300:7 *300:8 0.248572
5 *300:4 *300:7 0.248572
6 *300:4 *300:3 0.124286
7 *300:5 *300:3 0.248572
8 *764:Y *300:5 1.39999998
*END

*D_NET *301 0.00152645

*CONN
*I *763:Y O *C 54.955 27.985 *L 0 *D NAND2XL
*I *747:A I *C 54.955 24.505 *L 0.00168 *D OR4X2
*I *743:AN I *C 57.275 34.945 *L 0.00178 *D NAND2BX1
*I *741:B0 I *C 56.985 32.915 *L 0.00271 *D OAI32X1
*I *737:A0 I *C 56.985 27.405 *L 0.00257 *D OAI32X1

*CAP
1 *763:Y 0.00010342
2 *747:A 3.68019e-05
3 *743:AN 3.68019e-05
4 *741:B0 3.68019e-05
5 *737:A0 0.000111071
6 *301:5 0.00016046
7 *301:6 0.000174951
8 *301:7 4.34883e-05
9 *301:8 3.99305e-05
10 *301:9 3.56111e-05
11 *301:10 0.000262439
12 *301:11 0.00031593
13 *301:12 8.47783e-05
14 *301:13 4.14009e-05
15 *301:14 4.25675e-05

*RES
1 *301:14 *743:AN 1.40001
2 *301:13 *301:14 0.248588
3 *301:12 *301:13 0.124276
4 *301:11 *741:B0 1.40001
5 *301:11 *301:12 0.745729
6 *301:10 *301:11 2.3614285
7 *737:A0 *301:10 1.40001
8 *763:Y *737:A0 1.16
9 *763:Y *301:8 0.193351
10 *301:9 *301:8 1.40001
11 *301:7 *301:9 0.124276
12 *301:6 *301:7 0.248588
13 *301:5 *301:6 0.994282
14 *747:A *301:5 1.40001
*END

*D_NET *302 0.00251902

*CONN
*I *762:Y O *C 45.965 18.995 *L 0 *D NAND2XL
*I *728:A I *C 43.065 19.575 *L 0.00181 *D OR4XL
*I *720:B0 I *C 45.095 17.255 *L 0.00271 *D OAI32X1
*I *718:A0 I *C 39.585 11.745 *L 0.00257 *D OAI32X1
*I *715:A0 I *C 42.195 11.745 *L 0.00257 *D OAI32X1

*CAP
1 *762:Y 3.67997e-05
2 *728:A 3.67997e-05
3 *720:B0 3.67997e-05
4 *718:A0 3.67997e-05
5 *715:A0 3.67997e-05
6 *302:5 2.92414e-05
7 *302:6 2.92414e-05
8 *302:7 0.000150319
9 *302:8 0.000150999
10 *302:9 0.000235969
11 *302:10 0.000235969
12 *302:11 8.807e-05
13 *302:12 8.807e-05
14 *302:13 0.00027306
15 *302:14 0.000200569
16 *302:15 8.20076e-05
17 *302:16 8.20076e-05
18 *302:17 0.000119441
19 *302:18 6.01286e-05
20 *302:19 5.94495e-05
21 *302:22 0.000158611
22 *302:23 0.000158611
23 *302:24 7.38702e-05
24 *302:25 5.93786e-05

*RES
1 *302:23 *728:A 1.4
2 *302:22 *302:23 0.994282
3 *302:25 *762:Y 1.4
4 *302:16 *302:22 1.4
5 *302:24 *302:25 0.248564
6 *302:16 *302:15 0.87
7 *302:17 *302:24 0.248564
8 *302:13 *720:B0 1.4
9 *302:13 *302:15 1.4
10 *302:13 *302:17 0.621436
11 *302:14 *302:13 1.74000001
12 *302:9 *302:14 1.4
13 *302:10 *302:9 1.24285
14 *302:11 *302:10 1.4
15 *302:12 *715:A0 1.4
16 *302:21 *302:12 0.193047
17 *302:12 *302:11 0.621436
18 *302:18 *302:12 1.4
19 *302:19 *302:18 0.248564
20 *302:7 *302:19 0.124282
21 *302:8 *302:7 0.87
22 *302:6 *302:8 1.4
23 *302:5 *718:A0 1.4
24 *302:6 *302:5 0.124282
25 *302:20 *302:5 0.182852
*END

*D_NET *303 0.00150322

*CONN
*I *761:Y O *C 57.275 45.095 *L 0 *D NAND2XL
*I *753:B I *C 56.115 45.675 *L 0.00171 *D NOR2XL
*I *752:AN I *C 54.085 40.165 *L 0.00178 *D NAND2BX1
*I *751:A1 I *C 54.955 45.095 *L 0.00163 *D AOI21XL

*CAP
1 *761:Y 3.6801e-05
2 *753:B 3.6801e-05
3 *752:AN 3.6801e-05
4 *751:A1 3.6801e-05
5 *303:4 0.00016494
6 *303:5 0.00016494
7 *303:6 4.95814e-05
8 *303:7 4.95814e-05
9 *303:8 8.70091e-05
10 *303:9 8.70091e-05
11 *303:11 4.24387e-05
12 *303:12 4.24387e-05
13 *303:13 0.00010354
14 *303:14 0.00015566
15 *303:15 3.24494e-05
16 *303:16 8.59294e-05
17 *303:4 *175:9 0.00010004
18 *303:5 *175:10 0.00010004
19 *303:4 *175:10 3.7e-05
20 *303:5 *175:11 3.7e-05
21 *303:12 *175:10 8.21e-06
22 *303:11 *175:11 8.20999582e-06

*RES
1 *303:11 *752:AN 1.39999
2 *303:11 *303:12 0.372865
3 *303:9 *303:12 1.39999
4 *303:9 *303:8 0.372865
5 *303:5 *303:8 1.39999
6 *303:6 *753:B 1.39999
7 *303:4 *751:A1 1.39999
8 *303:5 *303:4 1.61571431
9 *303:7 *303:6 0.24856
10 *303:13 *303:4 1.39999
11 *303:14 *303:7 1.39999
12 *303:13 *303:14 0.497145
13 *303:14 *303:16 0.497145
14 *303:15 *303:16 1.39999
15 *303:15 *761:Y 1.39999
16 *303:10 *303:15 0.193064
*END

*D_NET *304 7.696e-05

*CONN
*I *759:Y O *C 40.455 14.645 *L 0 *D NOR2XL
*I *722:A0 I *C 41.325 14.355 *L 0.00164 *D OAI21XL

*CAP
1 *759:Y 3.848e-05
2 *722:A0 3.848e-05

*RES
1 *759:Y *722:A0 0.58
*END

*D_NET *305 0.00054844

*CONN
*I *758:Y O *C 63.655 27.115 *L 0 *D NOR2XL
*I *740:A0 I *C 60.755 27.405 *L 0.00164 *D OAI21XL

*CAP
1 *758:Y 3.67998e-05
2 *740:A0 3.67998e-05
3 *305:2 0.00020497
4 *305:3 0.00020497
5 *305:6 3.24493e-05
6 *305:7 3.24493e-05

*RES
1 *305:5 *305:7 0.193051
2 *305:7 *758:Y 1.39999998
3 *305:2 *305:7 1.39999998
4 *305:3 *305:2 1.24286
5 *305:6 *740:A0 1.39999998
6 *305:6 *305:3 1.39999998
7 *305:4 *305:6 0.193051
*END

*D_NET *306 0.00115376

*CONN
*I *760:Y O *C 52.345 27.985 *L 0 *D NAND2XL
*I *755:AN I *C 52.055 29.725 *L 0.00178 *D NAND2BX1
*I *746:A I *C 53.795 34.945 *L 0.00162 *D NOR2XL

*CAP
1 *760:Y 3.68012e-05
2 *755:AN 3.68012e-05
3 *746:A 3.68012e-05
4 *306:3 0.000343129
5 *306:4 0.000368940703
6 *306:5 0.000135399
7 *306:6 0.000136508
8 *306:7 5.93818e-05

*RES
1 *306:7 *746:A 1.40001
2 *306:6 *306:7 0.248568
3 *306:3 *306:6 0.745703
4 *306:4 *755:AN 1.40001
5 *306:4 *306:3 1.86428571
6 *306:5 *306:4 0.994299
7 *760:Y *306:5 1.40001
*END

*D_NET *307 0.000837399

*CONN
*I *756:Y O *C 63.075 48.285 *L 0 *D XNOR2X2
*I *754:B I *C 58.725 45.675 *L 0.00171 *D NOR2XL

*CAP
1 *756:Y 3.6798e-05
2 *754:B 3.6798e-05
3 *307:2 0.0001042
4 *307:3 0.0001042
5 *307:4 6.09695e-05
6 *307:5 6.09695e-05
7 *307:6 0.00021673
8 *307:7 0.00021673

*RES
1 *307:4 *756:Y 1.40001
2 *307:5 *307:4 0.372851
3 *307:7 *307:5 1.40001
4 *307:6 *307:7 1.86428571
5 *307:2 *307:6 1.40001
6 *307:3 *307:2 0.745703
7 *754:B *307:3 1.40001
*END

*D_NET *308 0.00127749

*CONN
*I *757:Y O *C 38.135 16.675 *L 0 *D NAND3X1
*I *730:B I *C 41.325 22.475 *L 0.00272 *D NOR3X1
*I *726:A I *C 42.775 16.965 *L 0.00157 *D NAND2XL

*CAP
1 *757:Y 3.68e-05
2 *730:B 3.68e-05
3 *726:A 2.58201e-05
4 *308:3 0.000156259
5 *308:4 0.00015693958
6 *308:5 7.31092e-05
7 *308:6 7.2429e-05
8 *308:9 3.24488e-05
9 *308:10 5.42889e-05
10 *308:11 5.54599e-05
11 *308:12 0.000108621
12 *308:13 9.29616e-05
13 *308:14 4.61204e-05
14 *308:15 5.83001e-05
15 *308:16 7.27907e-05
16 *308:11 *127:8 2.512e-05
17 *308:10 *127:9 2.512e-05
18 *308:13 *127:9 4.916e-05
19 *308:12 *127:10 4.916e-05
20 *308:11 *127:9 2.489e-05
21 *308:10 *127:10 2.48899999e-05

*RES
1 *308:11 *730:B 1.39999998
2 *308:10 *308:11 0.497144
3 *308:10 *308:13 0.124286
4 *308:12 *308:13 1.36714
5 *308:14 *726:A 0.386658
6 *308:12 *308:16 0.248572
7 *308:15 *308:14 1.39999998
8 *308:8 *308:15 0.193051
9 *308:15 *308:16 0.372858
10 *308:5 *308:15 1.39999998
11 *308:6 *308:5 0.497144
12 *308:3 *308:6 0.124286
13 *308:4 *308:3 1.24286
14 *308:9 *308:4 1.39999998
15 *308:9 *757:Y 1.39999998
16 *308:7 *308:9 0.193051
*END

*D_NET *309 0.000766151

*CONN
*I *768:B I *C 54.375 32.915 *L 0.00284 *D NAND2BX1
*I *755:Y O *C 52.925 29.145 *L 0 *D NAND2BX1
*I *749:C I *C 52.925 32.625 *L 0.00278 *D NOR3X1

*CAP
1 *768:B 3.68008e-05
2 *755:Y 3.68008e-05
3 *749:C 3.68008e-05
4 *309:3 0.00014359
5 *309:4 0.00011785
6 *309:5 3.90992e-05
7 *309:6 9.24204e-05
8 *309:7 5.70307e-05
9 *309:8 5.66713e-05
10 *309:9 9.24204e-05
11 *309:10 5.66713e-05

*RES
1 *309:10 *768:B 1.39999998
2 *309:8 *309:10 0.497144
3 *309:9 *309:8 1.39999998
4 *309:6 *309:9 0.497144
5 *309:4 *755:Y 1.39999998
6 *309:3 *309:6 1.39999998
7 *309:4 *309:3 0.745715
8 *309:3 *309:7 0.372858
9 *309:5 *309:7 0.124286
10 *749:C *309:5 1.39999998
*END

*D_NET *310 0.000380899

*CONN
*I *663:A I *C 59.305 48.285 *L 0.00172 *D CLKBUFX2
*I *754:Y O *C 59.015 45.965 *L 0 *D NOR2XL

*CAP
1 *663:A 3.68001e-05
2 *754:Y 3.68001e-05
3 *310:2 8.00695068e-05
4 *310:3 7.89003e-05
5 *310:4 7.35794e-05
6 *310:5 7.47499e-05

*RES
1 *310:5 *663:A 1.39999998
2 *310:4 *310:5 0.621429
3 *310:3 *310:4 0.124286
4 *310:2 *310:3 0.372858
5 *754:Y *310:2 1.39999998
*END

*D_NET *311 0.000365049

*CONN
*I *753:Y O *C 56.405 45.965 *L 0 *D NOR2XL
*I *751:B0 I *C 54.375 45.385 *L 0.00166 *D AOI21XL

*CAP
1 *753:Y 3.68004e-05
2 *751:B0 2.56597e-05
3 *311:2 3.06597e-05
4 *311:3 3.06597e-05
5 *311:4 8.143e-05
6 *311:5 8.143e-05
7 *311:8 4.59591e-05
8 *311:9 3.24502e-05

*RES
1 *311:7 *311:9 0.193051
2 *311:9 *753:Y 1.39999998
3 *311:4 *311:9 1.39999998
4 *311:5 *311:4 0.621429
5 *751:B0 *311:8 0.386658
6 *311:2 *311:5 1.39999998
7 *311:3 *311:8 1.39999998
8 *311:3 *311:2 0.124286
9 *311:6 *311:3 0.0643219
*END

*D_NET *312 0.00392665

*CONN
*I *752:Y O *C 53.215 39.585 *L 0 *D NAND2BX1
*I *750:A I *C 59.885 34.945 *L 0.00273 *D INVX1
*I *749:B I *C 52.635 32.915 *L 0.00272 *D NOR3X1
*I *747:D I *C 53.505 24.795 *L 0.00163 *D OR4X2
*I *746:B I *C 54.085 35.235 *L 0.00171 *D NOR2XL
*I *741:A1 I *C 58.435 32.625 *L 0.00271 *D OAI32X1
*I *737:A2 I *C 57.565 27.405 *L 0.00281 *D OAI32X1

*CAP
1 *752:Y 3.68027e-05
2 *750:A 3.68027e-05
3 *749:B 3.68027e-05
4 *747:D 3.68027e-05
5 *746:B 3.68027e-05
6 *741:A1 3.68027e-05
7 *737:A2 3.68027e-05
8 *312:7 5.88712e-05
9 *312:8 7.45287e-05
10 *312:9 0.000165148
11 *312:10 9.0629e-05
12 *312:11 0.000121233
13 *312:12 7.5419e-05
14 *312:13 0.000202639
15 *312:14 0.000308699141
16 *312:15 0.000137352
17 *312:16 0.0001203
18 *312:17 4.10892e-05
19 *312:18 4.10892e-05
20 *312:19 0.000176161
21 *312:20 0.000176161
22 *312:21 0.000271948
23 *312:22 0.000242169
24 *312:23 0.000106428
25 *312:24 8.94891e-05
26 *312:25 7.58194e-05
27 *312:27 6.89798e-05
28 *312:28 7.0148e-05
29 *312:29 3.87905e-05
30 *312:30 3.87905e-05
31 *312:31 0.00015585
32 *312:32 6.3591e-05
33 *312:33 0.00015585
34 *312:32 *173:9 5.998e-05
35 *312:21 *173:10 5.998e-05
36 *312:21 *173:9 0.00019095
37 *312:22 *173:10 0.00019095

*RES
1 *312:28 *752:Y 1.4
2 *312:18 *737:A2 1.4
3 *312:27 *312:28 0.497143
4 *312:18 *312:17 0.248571
5 *312:27 *312:7 0.124286
6 *312:19 *312:17 1.4
7 *312:8 *312:7 0.497143
8 *312:15 *747:D 1.4
9 *312:20 *312:19 1.74
10 *312:8 *312:16 0.248571
11 *312:15 *312:14 1.36714
12 *312:14 *312:20 1.4
13 *312:12 *749:B 1.4
14 *312:9 *746:B 1.4
15 *312:9 *312:16 0.87
16 *312:14 *312:13 1.36714
17 *312:12 *312:11 0.372857
18 *312:10 *312:9 0.745714
19 *312:13 *312:25 0.124286
20 *312:11 *312:23 0.497143
21 *312:23 *312:10 0.124286
22 *312:33 *750:A 1.4
23 *312:25 *312:24 0.621429
24 *312:24 *312:23 0.372857
25 *312:31 *312:33 0.994286
26 *312:22 *312:24 1.4
27 *312:32 *312:31 1.4
28 *312:22 *312:21 1.98857141
29 *312:21 *312:32 0.621429
30 *312:30 *312:21 1.4
31 *312:29 *741:A1 1.4
32 *312:29 *312:30 0.124286
33 *312:26 *312:29 0.0643276
*END

*D_NET *313 0.0012422

*CONN
*I *751:Y O *C 54.555 45.02 *L 0 *D AOI21XL
*I *745:B I *C 46.835 43.065 *L 0.00171 *D NOR2XL

*CAP
1 *751:Y 3.68014e-05
2 *745:B 3.68014e-05
3 *313:2 0.000101041
4 *313:3 0.000101041
5 *313:4 0.00021313
6 *313:5 0.000124691
7 *313:6 0.00021245
8 *313:7 0.000124519
9 *313:8 6.076e-05
10 *313:9 8.46796e-05
11 *313:10 6.16088e-05
12 *313:11 8.46796e-05

*RES
1 *313:11 *751:Y 1.4
2 *313:9 *313:11 0.497154
3 *313:10 *313:9 1.4
4 *313:8 *313:10 0.372846
5 *313:7 *313:8 0.124282
6 *313:5 *313:7 0.994282
7 *313:5 *313:6 0.124282
8 *313:4 *313:6 1.74000001
9 *313:3 *313:4 1.4
10 *313:2 *313:3 0.497154
11 *745:B *313:2 1.4
*END

*D_NET *314 0.000976491

*CONN
*I *750:Y O *C 60.2575 34.945 *L 0 *D INVX1
*I *748:B0 I *C 61.045 32.915 *L 0.0028 *D OAI21X1
*I *741:B1 I *C 57.565 32.625 *L 0.00282 *D OAI32X1

*CAP
1 *750:Y 3.67998e-05
2 *748:B0 3.67998e-05
3 *741:B1 3.67998e-05
4 *314:3 7.21396e-05
5 *314:4 7.21396e-05
6 *314:5 0.00014155
7 *314:6 0.00015209
8 *314:7 0.000152840596
9 *314:8 0.000152840596
10 *314:9 5.20687e-05
11 *314:10 7.04184e-05

*RES
1 *314:10 *748:B0 1.39999998
2 *314:6 *314:10 0.372858
3 *314:9 *750:Y 1.39999998
4 *314:6 *314:5 0.621429
5 *314:5 *314:9 0.372858
6 *314:7 *314:5 1.39999998
7 *314:8 *314:7 1.11857
8 *314:3 *314:8 1.39999998
9 *314:4 *314:3 0.745715
10 *741:B1 *314:4 1.39999998
*END

*D_NET *315 0.000586788

*CONN
*I *747:Y O *C 55.535 24.795 *L 0 *D OR4X2
*I *736:B I *C 57.855 22.185 *L 0.00167 *D NAND2XL

*CAP
1 *747:Y 3.67996e-05
2 *736:B 3.67996e-05
3 *315:2 0.000110849
4 *315:3 0.000110849
5 *315:4 0.00012952
6 *315:5 0.00012952
7 *315:7 3.24497e-05

*RES
1 *315:3 *736:B 1.39999998
2 *315:3 *315:2 0.870001
3 *315:4 *315:2 1.39999998
4 *315:5 *315:4 0.994287
5 *315:7 *315:5 1.39999998
6 *315:7 *747:Y 1.39999998
7 *315:6 *315:7 0.193051
*END

*D_NET *316 0.00109891

*CONN
*I *749:Y O *C 52.635 33.205 *L 0 *D NOR3X1
*I *744:B I *C 50.315 27.405 *L 0.00167 *D NAND2XL
*I *742:B I *C 49.445 30.015 *L 0.00233 *D XNOR2XL

*CAP
1 *749:Y 2.56598e-05
2 *744:B 3.68006e-05
3 *742:B 3.68006e-05
4 *316:3 7.4531e-05
5 *316:4 7.52103e-05
6 *316:5 5.66208e-05
7 *316:6 4.21306e-05
8 *316:7 6.52902e-05
9 *316:8 8.09506e-05
10 *316:9 8.32996e-05
11 *316:10 9.43295898e-05
12 *316:11 4.23206e-05
13 *316:13 4.20701e-05
14 *316:14 4.59593e-05
15 *316:15 3.24508e-05
16 *316:16 4.27495e-05
17 *316:3 *189:8 0.00011087
18 *316:4 *189:9 0.000110869998

*RES
1 *316:6 *744:B 1.39999998
2 *316:6 *316:5 0.372858
3 *316:8 *316:5 0.248572
4 *316:8 *316:7 0.497144
5 *316:11 *316:7 0.124286
6 *316:10 *742:B 1.39999998
7 *316:11 *316:10 0.248572
8 *316:10 *316:9 0.745715
9 *316:4 *316:9 1.39999998
10 *316:4 *316:3 1.11857
11 *316:3 *316:13 0.124286
12 *316:13 *316:16 0.248572
13 *316:14 *749:Y 0.386658
14 *316:15 *316:16 1.39999998
15 *316:15 *316:14 1.39999998
16 *316:12 *316:15 0.193051
*END

*D_NET *317 0.00220635

*CONN
*I *748:Y O *C 60.755 33.205 *L 0 *D OAI21X1
*I *740:A1 I *C 60.465 27.115 *L 0.00166 *D OAI21XL
*I *738:A1 I *C 54.375 22.185 *L 0.00278 *D OAI211X1

*CAP
1 *748:Y 5.13198e-05
2 *740:A1 3.68018e-05
3 *738:A1 3.68018e-05
4 *317:3 0.0001424
5 *317:4 0.0001424
6 *317:5 0.000203139
7 *317:6 0.000217639
8 *317:7 0.000203139
9 *317:8 0.0003885
10 *317:9 0.000156366
11 *317:10 5.98682e-05
12 *317:11 7.16177e-05
13 *317:12 6.1036e-05
14 *317:13 0.000141949
15 *317:14 0.000141949
16 *317:15 9.07775e-05
17 *317:16 6.0627e-05

*RES
1 *317:11 *748:Y 0.773319
2 *317:12 *317:11 1.39999
3 *317:10 *317:12 0.372869
4 *317:10 *317:14 0.12429
5 *317:16 *740:A1 1.39999
6 *317:13 *317:14 1.24286
7 *317:15 *317:16 0.372869
8 *317:9 *317:13 0.12429
9 *317:8 *317:15 0.372869
10 *317:8 *317:9 0.994282
11 *317:6 *317:8 1.11857
12 *317:7 *317:6 1.39999
13 *317:5 *317:7 2.2371428
14 *317:3 *317:5 1.39999
15 *317:4 *317:3 0.621413
16 *738:A1 *317:4 1.39999
*END

*D_NET *318 0.000841322

*CONN
*I *649:A I *C 50.895 45.385 *L 0.00155 *D DLY2X1
*I *745:Y O *C 47.125 42.775 *L 0 *D NOR2XL

*CAP
1 *649:A 3.68009e-05
2 *745:Y 3.68009e-05
3 *318:2 0.000133471
4 *318:3 0.000132299
5 *318:5 3.90995e-05
6 *318:6 0.0002152
7 *318:7 3.24499e-05
8 *318:8 0.0002152

*RES
1 *318:5 *745:Y 1.39999
2 *318:5 *318:3 0.124278
3 *318:3 *318:2 1.11857
4 *318:6 *318:2 1.39999
5 *318:6 *318:8 1.49142861
6 *318:7 *649:A 1.39999
7 *318:7 *318:8 1.39999
8 *318:4 *318:7 0.193051
*END

*D_NET *319 0.00105026

*CONN
*I *746:Y O *C 54.375 35.525 *L 0 *D NOR2XL
*I *743:B I *C 56.405 34.945 *L 0.00284 *D NAND2BX1
*I *739:A2 I *C 57.275 37.845 *L 0.00281 *D OAI32X1

*CAP
1 *746:Y 6.44615e-05
2 *743:B 3.67979e-05
3 *739:A2 3.67979e-05
4 *319:3 0.00027548
5 *319:4 0.000249271
6 *319:5 5.91314e-05
7 *319:6 7.36211e-05
8 *319:7 5.08882e-05
9 *319:8 8.47605e-05
10 *319:9 4.44484e-05
11 *319:10 7.46005e-05

*RES
1 *319:9 *739:A2 1.39999
2 *319:9 *319:10 0.248579
3 *319:3 *319:10 0.372857
4 *319:4 *743:B 1.39999
5 *319:4 *319:3 1.49142861
6 *319:7 *319:4 0.248579
7 *319:6 *319:7 0.248579
8 *319:6 *319:5 0.497135
9 *319:8 *319:5 1.39999
10 *746:Y *319:8 0.966666
*END

*D_NET *320 0.0005571

*CONN
*I *743:Y O *C 56.405 34.365 *L 0 *D NAND2BX1
*I *739:B0 I *C 56.115 38.135 *L 0.00271 *D OAI32X1

*CAP
1 *743:Y 3.68002e-05
2 *739:B0 3.68002e-05
3 *320:2 0.00024175
4 *320:3 0.00024175

*RES
1 *320:2 *739:B0 1.39999998
2 *320:3 *320:2 1.24286
3 *743:Y *320:3 1.39999998
*END

*D_NET *321 0.00159131

*CONN
*I *744:Y O *C 50.315 27.985 *L 0 *D NAND2XL
*I *734:B I *C 47.705 19.285 *L 0.0028 *D NOR2BX1
*I *733:B I *C 47.995 22.185 *L 0.00171 *D NOR2XL
*I *732:A1 I *C 50.605 22.765 *L 0.00163 *D AOI21XL

*CAP
1 *744:Y 3.68002e-05
2 *734:B 3.68002e-05
3 *733:B 3.68002e-05
4 *732:A1 3.68002e-05
5 *321:4 0.00030852
6 *321:5 0.000104648
7 *321:6 0.000236332
8 *321:7 8.1048e-05
9 *321:8 6.05694e-05
10 *321:9 0.000171078
11 *321:10 0.000171078
12 *321:11 3.90976e-05
13 *321:12 5.17707e-05
14 *321:12 *82:4 4.956e-05
15 *321:7 *82:5 4.956e-05
16 *321:7 *82:4 6.042e-05
17 *321:8 *82:5 6.0420001e-05

*RES
1 *321:6 *744:Y 1.40001
2 *321:4 *732:A1 1.40001
3 *321:4 *321:6 1.86428571
4 *321:5 *321:4 0.745703
5 *321:9 *321:5 1.40001
6 *321:12 *733:B 1.40001
7 *321:10 *321:9 1.11858
8 *321:7 *321:12 0.497135
9 *321:7 *321:10 1.40001
10 *321:8 *321:7 0.621419
11 *321:11 *321:8 0.124284
12 *734:B *321:11 1.40001
*END

*D_NET *322 0.00034437

*CONN
*I *742:Y O *C 47.415 29.725 *L 0 *D XNOR2XL
*I *735:B I *C 45.675 30.015 *L 0.00171 *D NOR2XL

*CAP
1 *742:Y 2.74896e-05
2 *735:B 3.67997e-05
3 *322:2 6.06800928e-05
4 *322:3 4.61904e-05
5 *322:4 4.74996e-05
6 *322:5 3.18396e-05
7 *322:6 5.477e-05
8 *322:7 3.91006e-05

*RES
1 *322:6 *742:Y 0.580008
2 *322:7 *322:6 1.39999998
3 *322:5 *322:7 0.124286
4 *322:3 *735:B 1.39999998
5 *322:4 *322:5 0.124286
6 *322:2 *322:3 0.248572
7 *322:2 *322:4 0.248572
*END

*D_NET *323 0.0016047

*CONN
*I *664:A I *C 59.305 22.185 *L 0.00172 *D CLKBUFX2
*I *741:Y O *C 57.855 31.755 *L 0 *D OAI32X1

*CAP
1 *664:A 3.67981e-05
2 *741:Y 3.67981e-05
3 *323:2 0.000622939
4 *323:3 0.00062411
5 *323:5 8.52812e-05
6 *323:6 3.24554e-05
7 *323:7 4.10931e-05
8 *323:8 3.91027e-05
9 *323:9 8.61288e-05

*RES
1 *323:3 *664:A 1.39998
2 *323:3 *323:2 4.10142851
3 *323:8 *323:2 0.12429
4 *323:9 *323:8 1.39998
5 *323:5 *323:9 0.497158
6 *323:5 *323:7 0.12429
7 *323:6 *323:7 1.39998
8 *323:6 *741:Y 1.39998
9 *323:4 *323:6 0.193068
*END

*D_NET *324 0.000393769

*CONN
*I *740:Y O *C 59.595 27.985 *L 0 *D OAI21XL
*I *737:B1 I *C 58.145 27.405 *L 0.00282 *D OAI32X1

*CAP
1 *740:Y 2.63001e-05
2 *737:B1 3.67997e-05
3 *324:2 6.15299658e-05
4 *324:3 6.15299658e-05
5 *324:5 6.07901e-05
6 *324:6 5.35804e-05
7 *324:7 3.24498e-05
8 *324:8 6.07901e-05

*RES
1 *324:3 *737:B1 1.39999998
2 *324:3 *324:2 0.248572
3 *324:5 *324:2 1.39999998
4 *324:5 *324:8 0.372858
5 *324:6 *740:Y 0.386658
6 *324:7 *324:8 1.39999998
7 *324:7 *324:6 1.39999998
8 *324:4 *324:7 0.193051
*END

*D_NET *325 0.000810371

*CONN
*I *739:Y O *C 56.985 36.975 *L 0 *D OAI32X1
*I *700:D I *C 61.335 37.555 *L 0.0016 *D DFFQX1

*CAP
1 *739:Y 3.67987e-05
2 *700:D 3.67987e-05
3 *325:3 3.24488e-05
4 *325:4 0.00030327
5 *325:5 4.88906e-05
6 *325:6 0.00030327
7 *325:7 4.88906e-05

*RES
1 *325:7 *700:D 1.40001
2 *325:5 *325:7 0.248568
3 *325:6 *325:5 1.40001
4 *325:4 *325:6 1.86428571
5 *325:3 *325:4 1.40001
6 *325:3 *739:Y 1.40001
7 *325:2 *325:3 0.193068
*END

*D_NET *326 0.00024616

*CONN
*I *738:Y O *C 55.245 21.605 *L 0 *D OAI211X1
*I *736:A I *C 57.275 22.185 *L 0.00157 *D NAND2XL

*CAP
1 *738:Y 3.84795e-05
2 *736:A 5.18005e-05
3 *326:2 7.12804e-05
4 *326:3 8.46e-05

*RES
1 *326:3 *736:A 0.773333311
2 *326:2 *326:3 0.386667
3 *738:Y *326:2 0.58
*END

*D_NET *327 0.000770672

*CONN
*I *666:A I *C 62.205 27.405 *L 0.00172 *D CLKBUFX2
*I *737:Y O *C 57.855 26.535 *L 0 *D OAI32X1

*CAP
1 *666:A 3.68018e-05
2 *737:Y 3.68018e-05
3 *327:2 4.61125e-05
4 *327:3 4.61125e-05
5 *327:5 3.24522e-05
6 *327:6 0.0002862
7 *327:7 0.0002862

*RES
1 *327:2 *666:A 1.40001
2 *327:3 *327:2 0.248568
3 *327:7 *327:3 1.40001
4 *327:6 *327:7 1.86428571
5 *327:5 *327:6 1.40001
6 *327:5 *737:Y 1.40001
7 *327:4 *327:5 0.193068
*END

*D_NET *328 0.00046269

*CONN
*I *736:Y O *C 57.855 22.765 *L 0 *D NAND2XL
*I *699:D I *C 61.045 21.895 *L 0.00164 *D DFFQXL

*CAP
1 *736:Y 3.67997e-05
2 *699:D 3.67997e-05
3 *328:3 3.24502e-05
4 *328:4 0.00013925
5 *328:5 3.9069e-05
6 *328:6 0.00013925
7 *328:7 3.9069e-05

*RES
1 *328:7 *699:D 1.39999998
2 *328:5 *328:7 0.124286
3 *328:6 *328:5 1.39999998
4 *328:4 *328:6 1.11857
5 *328:3 *328:4 1.39999998
6 *328:3 *736:Y 1.39999998
7 *328:2 *328:3 0.193051
*END

*D_NET *329 0.00136618

*CONN
*I *665:A I *C 37.265 27.405 *L 0.00172 *D CLKBUFX2
*I *735:Y O *C 45.965 30.305 *L 0 *D NOR2XL

*CAP
1 *665:A 3.68017e-05
2 *735:Y 4.00818e-05
3 *329:2 0.000115813
4 *329:3 0.000115813
5 *329:4 6.03809e-05
6 *329:5 5.57916e-05
7 *329:6 5.51116e-05
8 *329:7 0.00023764
9 *329:8 0.00023832
10 *329:9 4.83004e-05
11 *329:10 4.83004e-05
12 *329:11 0.00015692
13 *329:12 0.00015692

*RES
1 *735:Y *329:4 0.580006
2 *329:2 *329:4 1.39999
3 *329:3 *329:2 0.869992
4 *329:5 *329:3 1.39999
5 *329:6 *329:5 0.372869
6 *329:6 *329:12 0.12429
7 *329:11 *329:12 1.49144
8 *329:7 *329:11 0.12429
9 *329:8 *329:7 2.2371428
10 *329:9 *329:8 1.39999
11 *329:10 *329:9 0.372869
12 *665:A *329:10 1.39999
*END

*D_NET *330 0.000527619

*CONN
*I *733:Y O *C 47.705 21.895 *L 0 *D NOR2XL
*I *732:B0 I *C 50.025 22.475 *L 0.00166 *D AOI21XL

*CAP
1 *733:Y 2.56599e-05
2 *732:B0 3.6799e-05
3 *330:2 7.10601e-05
4 *330:3 7.17396e-05
5 *330:6 5.29401e-05
6 *330:7 3.24498e-05
7 *330:8 0.000101919
8 *330:9 3.24498e-05
9 *330:10 0.000102600283

*RES
1 *330:9 *732:B0 1.39999998
2 *330:5 *330:9 0.193051
3 *330:10 *330:9 1.39999998
4 *330:8 *330:10 0.497144
5 *330:2 *330:8 0.124286
6 *330:3 *330:2 0.745715
7 *330:6 *733:Y 0.386658
8 *330:7 *330:3 1.39999998
9 *330:7 *330:6 1.39999998
10 *330:4 *330:7 0.193051
*END

*D_NET *331 0.00250859

*CONN
*I *734:Y O *C 47.425 19.285 *L 0 *D NOR2BX1
*I *731:A I *C 44.805 19.285 *L 0.00273 *D CLKINVX1
*I *729:B0 I *C 41.325 17.255 *L 0.0028 *D OAI21X1
*I *726:B I *C 43.355 16.965 *L 0.00167 *D NAND2XL
*I *724:C I *C 39.005 14.065 *L 0.00285 *D NAND3X1
*I *720:B1 I *C 45.675 16.965 *L 0.00282 *D OAI32X1

*CAP
1 *734:Y 3.67997e-05
2 *731:A 3.67997e-05
3 *729:B0 3.67997e-05
4 *726:B 3.67997e-05
5 *724:C 3.67997e-05
6 *720:B1 3.67997e-05
7 *331:6 6.9749e-05
8 *331:7 7.092e-05
9 *331:8 9.79899e-05
10 *331:9 0.000139149
11 *331:10 0.000148568
12 *331:11 9.20895e-05
13 *331:12 0.00016158
14 *331:13 0.000113659
15 *331:14 7.95299e-05
16 *331:15 7.83618e-05
17 *331:16 0.000125659
18 *331:17 0.000125659
19 *331:18 3.90996e-05
20 *331:19 8.10502e-05
21 *331:20 3.54901e-05
22 *331:21 5.58497e-05
23 *331:22 5.58497e-05
24 *331:23 0.000197289414
25 *331:24 0.000197289414
26 *331:25 4.33504e-05
27 *331:26 3.90996e-05
28 *331:27 0.000120252
29 *331:28 0.000120252

*RES
1 *331:26 *720:B1 1.39999998
2 *331:28 *734:Y 1.39999998
3 *331:6 *331:26 0.124286
4 *331:24 *731:A 1.39999998
5 *331:27 *331:28 1.11857
6 *331:7 *331:6 0.372858
7 *331:23 *331:24 1.11857
8 *331:8 *331:27 1.39999998
9 *331:22 *726:B 1.39999998
10 *331:25 *331:7 1.39999998
11 *331:9 *331:23 1.39999998
12 *331:9 *331:8 1.11857
13 *331:21 *331:22 0.497144
14 *331:10 *331:25 0.248572
15 *331:10 *331:9 0.372858
16 *331:14 *729:B0 1.39999998
17 *331:11 *331:21 1.39999998
18 *331:11 *331:10 0.621429
19 *331:15 *331:14 0.621429
20 *331:20 *331:11 0.248572
21 *331:18 *331:15 0.124286
22 *331:19 *331:20 0.124286
23 *331:12 *331:18 1.39999998
24 *331:12 *331:19 0.745715
25 *331:13 *331:12 0.870001
26 *331:17 *331:13 1.39999998
27 *331:16 *331:17 0.621429
28 *724:C *331:16 1.39999998
*END

*D_NET *332 0.000339019

*CONN
*I *732:Y O *C 50.205 22.84 *L 0 *D AOI21XL
*I *727:B I *C 50.315 19.575 *L 0.00171 *D NOR2XL

*CAP
1 *732:Y 3.67993e-05
2 *727:B 3.67993e-05
3 *332:2 5.78699e-05
4 *332:3 4.33803e-05
5 *332:4 7.48404e-05
6 *332:5 8.933e-05

*RES
1 *332:4 *727:B 1.39999998
2 *332:4 *332:5 0.745715
3 *332:3 *732:Y 1.39999998
4 *332:2 *332:5 0.248572
5 *332:2 *332:3 0.248572
*END

*D_NET *333 0.00212078

*CONN
*I *731:Y O *C 45.1775 19.285 *L 0 *D CLKINVX1
*I *730:C I *C 41.615 22.185 *L 0.00278 *D NOR3X1
*I *728:D I *C 44.225 19.575 *L 0.00161 *D OR4XL
*I *715:A2 I *C 42.775 11.745 *L 0.00281 *D OAI32X1

*CAP
1 *731:Y 3.68033e-05
2 *730:C 3.68033e-05
3 *728:D 3.68033e-05
4 *715:A2 3.68033e-05
5 *333:4 0.00052407
6 *333:5 0.00052524
7 *333:6 0.000108687
8 *333:7 0.000107525
9 *333:8 8.93393e-05
10 *333:9 0.000144881
11 *333:10 9.96782e-05
12 *333:11 0.000125109
13 *333:12 5.92443e-05
14 *333:13 7.26448e-05
15 *333:14 4.24857e-05
16 *333:16 3.24513e-05
17 *333:17 4.22212e-05

*RES
1 *333:14 *731:Y 1.4
2 *333:5 *715:A2 1.4
3 *333:17 *728:D 1.4
4 *333:14 *333:13 0.37288
5 *333:5 *333:4 3.60428572
6 *333:17 *333:9 0.248587
7 *333:9 *333:13 0.37288
8 *333:7 *333:4 0.124293
9 *333:9 *333:8 0.869998
10 *333:7 *333:6 0.869998
11 *333:10 *333:8 1.4
12 *333:11 *333:6 1.4
13 *333:11 *333:10 0.745705
14 *333:12 *333:11 0.37288
15 *333:16 *730:C 1.4
16 *333:16 *333:12 1.4
17 *333:15 *333:16 0.19304
*END

*D_NET *334 0.00127786

*CONN
*I *728:Y O *C 42.5 19.7775 *L 0 *D OR4XL
*I *716:B I *C 36.395 16.965 *L 0.00167 *D NAND2XL

*CAP
1 *728:Y 3.67984e-05
2 *716:B 3.67984e-05
3 *334:2 0.000145629
4 *334:3 0.000145629
5 *334:4 4.29199e-05
6 *334:5 4.29199e-05
7 *334:6 0.00041358
8 *334:7 0.00041358

*RES
1 *334:2 *728:Y 1.39998
2 *334:3 *334:2 0.745731
3 *334:6 *334:3 1.39998
4 *334:7 *334:6 2.6099999
5 *334:4 *334:7 1.39998
6 *334:5 *334:4 0.372846
7 *716:B *334:5 1.39998
*END

*D_NET *335 0.00318391

*CONN
*I *730:Y O *C 41.325 22.765 *L 0 *D NOR3X1
*I *725:B I *C 18.995 27.405 *L 0.00167 *D NAND2XL
*I *723:B I *C 19.575 24.795 *L 0.00233 *D XNOR2XL

*CAP
1 *730:Y 3.67974e-05
2 *725:B 3.67974e-05
3 *723:B 3.67974e-05
4 *335:3 0.00068315
5 *335:4 0.000682472
6 *335:5 0.00013958
7 *335:6 0.000139351
8 *335:7 0.000109975
9 *335:8 9.55378e-05
10 *335:9 5.47062e-05
11 *335:10 0.000203053
12 *335:11 0.000202136
13 *335:12 7.06135e-05
14 *335:13 7.06135e-05
15 *335:3 *354:18 6.071e-05
16 *335:4 *354:17 6.071e-05
17 *335:5 *354:17 3.94e-05
18 *335:6 *354:16 3.94e-05
19 *335:3 *354:17 4.696e-05
20 *335:4 *354:16 4.696e-05
21 *335:3 *354:12 2.919e-05
22 *335:4 *354:13 2.91899915e-05
23 *335:11 *161:7 2.233e-05
24 *335:10 *161:8 2.233e-05
25 *335:11 *161:9 8.56e-06
26 *335:10 *161:5 8.56e-06
27 *335:11 *161:5 1.929e-05
28 *335:10 *161:6 1.929e-05
29 *335:8 *161:10 8.473e-05
30 *335:7 *161:11 8.47299956e-05

*RES
1 *335:12 *730:Y 1.40002
2 *335:12 *335:13 0.869985
3 *335:3 *335:13 1.40002
4 *335:4 *335:3 5.46857166
5 *335:4 *335:5 0.124248
6 *335:6 *335:5 1.36714
7 *335:11 *335:6 0.124248
8 *335:10 *335:11 2.48571
9 *335:8 *725:B 1.40002
10 *335:9 *723:B 1.40002
11 *335:9 *335:10 1.40002
12 *335:7 *335:8 1.11856
13 *335:7 *335:9 0.248579
*END

*D_NET *336 0.00145367

*CONN
*I *729:Y O *C 41.615 17.545 *L 0 *D OAI21X1
*I *722:A1 I *C 41.615 14.645 *L 0.00166 *D OAI21XL
*I *719:A1 I *C 35.815 19.575 *L 0.00278 *D OAI211X1

*CAP
1 *729:Y 4.96209e-05
2 *722:A1 3.68012e-05
3 *719:A1 3.68012e-05
4 *336:3 7.22416e-05
5 *336:4 7.22416e-05
6 *336:5 7.5579e-05
7 *336:6 7.44077e-05
8 *336:7 0.000158302
9 *336:8 0.000157622
10 *336:9 0.00028153
11 *336:10 0.00028221
12 *336:11 4.13012e-05
13 *336:12 4.24725e-05
14 *336:14 3.24519e-05
15 *336:15 4.00998e-05

*RES
1 *336:12 *722:A1 1.39999
2 *336:3 *719:A1 1.39999
3 *336:12 *336:11 0.372857
4 *336:4 *336:3 0.869992
5 *336:11 *336:6 0.124278
6 *336:10 *336:4 1.39999
7 *336:6 *336:5 0.497135
8 *336:10 *336:9 1.49142861
9 *336:15 *336:5 1.39999
10 *336:8 *336:9 0.124278
11 *729:Y *336:15 0.193324
12 *336:8 *336:7 0.994293
13 *336:14 *336:7 1.39999
14 *336:14 *729:Y 1.39999
15 *336:13 *336:14 0.193051
*END

*D_NET *337 0.000692256

*CONN
*I *650:A I *C 51.185 14.065 *L 0.00155 *D DLY2X1
*I *727:Y O *C 50.605 19.865 *L 0 *D NOR2XL

*CAP
1 *650:A 3.67985e-05
2 *727:Y 2.5659e-05
3 *337:2 0.00017608
4 *337:3 0.00017608
5 *337:4 5.82097e-05
6 *337:5 5.70383e-05
7 *337:6 5.41392e-05
8 *337:7 5.29382e-05
9 *337:8 5.53106e-05

*RES
1 *337:4 *650:A 1.39999
2 *337:4 *337:5 0.372865
3 *337:2 *337:5 0.12428
4 *337:2 *337:3 1.61571431
5 *337:3 *337:6 0.12428
6 *337:6 *337:8 0.497145
7 *337:7 *337:8 1.39999
8 *727:Y *337:7 0.386671
*END

*D_NET *338 0.00061276

*CONN
*I *726:Y O *C 43.355 17.545 *L 0 *D NAND2XL
*I *720:A2 I *C 46.255 16.965 *L 0.00281 *D OAI32X1

*CAP
1 *726:Y 3.84794e-05
2 *720:A2 3.68004e-05
3 *338:2 4.44704e-05
4 *338:3 4.37901e-05
5 *338:4 5.91807e-05
6 *338:5 5.91807e-05
7 *338:6 7.63196e-05
8 *338:7 7.6999873e-05
9 *338:8 5.878e-05
10 *338:9 5.93804e-05
11 *338:10 5.93804e-05

*RES
1 *338:9 *720:A2 1.39999998
2 *338:9 *338:10 0.248572
3 *338:2 *338:10 1.39999998
4 *338:3 *338:2 0.248572
5 *338:3 *338:6 0.124286
6 *338:7 *338:6 0.497144
7 *338:4 *338:7 1.39999998
8 *338:5 *338:4 0.248572
9 *338:8 *338:5 1.39999998
10 *726:Y *338:8 0.580008
*END

*D_NET *339 0.00105299

*CONN
*I *725:Y O *C 18.995 27.985 *L 0 *D NAND2XL
*I *714:AN I *C 16.965 27.405 *L 0.00174 *D NAND2BXL
*I *713:B I *C 14.935 27.405 *L 0.00171 *D NOR2XL
*I *712:A1 I *C 12.905 27.985 *L 0.00163 *D AOI21XL

*CAP
1 *725:Y 1.2818e-05
2 *714:AN 3.6799e-05
3 *713:B 3.6799e-05
4 *712:A1 3.6799e-05
5 *339:4 7.20092e-05
6 *339:5 0.000182661
7 *339:6 0.00022833
8 *339:7 4.45197e-05
9 *339:8 4.45197e-05
10 *339:9 0.000117679
11 *339:11 3.24508e-05
12 *339:12 4.58193e-05
13 *339:13 4.58193e-05
14 *339:14 3.31198e-05
15 *339:15 4.14189e-05
16 *339:16 4.14189e-05

*RES
1 *339:14 *725:Y 0.193329
2 *339:15 *339:14 1.39999998
3 *339:12 *714:AN 1.39999998
4 *339:15 *339:16 0.248572
5 *339:8 *713:B 1.39999998
6 *339:12 *339:13 0.248572
7 *339:4 *339:16 1.39999998
8 *339:8 *339:7 0.248572
9 *339:5 *339:13 1.39999998
10 *339:5 *339:4 0.621429
11 *339:6 *339:7 1.39999998
12 *339:6 *339:5 0.870001
13 *339:9 *339:6 0.870001
14 *339:11 *712:A1 1.39999998
15 *339:11 *339:9 1.39999998
16 *339:10 *339:11 0.193051
*END

*D_NET *340 0.000933171

*CONN
*I *724:Y O *C 39.295 14.645 *L 0 *D NAND3X1
*I *721:B I *C 36.105 11.745 *L 0.00167 *D NAND2XL
*I *718:A2 I *C 39.005 11.745 *L 0.00281 *D OAI32X1

*CAP
1 *724:Y 1.28205e-05
2 *721:B 3.67995e-05
3 *718:A2 3.67995e-05
4 *340:3 4.69097e-05
5 *340:4 4.69097e-05
6 *340:5 0.00019244
7 *340:6 0.00019244
8 *340:9 3.24507e-05
9 *340:10 7.98214e-05
10 *340:11 7.98214e-05
11 *340:12 5.15317e-05
12 *340:13 4.36796e-05
13 *340:14 5.15317e-05
14 *340:15 2.92206e-05

*RES
1 *724:Y *340:15 0.193329
2 *340:13 *340:15 0.193329
3 *340:14 *340:13 1.39999998
4 *340:12 *340:14 0.372858
5 *340:3 *340:12 1.39999998
6 *340:4 *340:3 0.248572
7 *340:11 *340:4 1.39999998
8 *340:10 *718:A2 1.39999998
9 *340:8 *340:10 0.0299927
10 *340:10 *340:11 0.372858
11 *340:5 *340:10 1.39999998
12 *340:6 *340:5 1.24286
13 *340:9 *721:B 1.39999998
14 *340:9 *340:6 1.39999998
15 *340:7 *340:9 0.193051
*END

*D_NET *341 0.000329569

*CONN
*I *723:Y O *C 17.545 24.505 *L 0 *D XNOR2XL
*I *717:B I *C 16.385 24.795 *L 0.00171 *D NOR2XL

*CAP
1 *723:Y 3.67991e-05
2 *717:B 3.67991e-05
3 *341:4 3.81007e-05
4 *341:5 7.366e-05
5 *341:6 3.81007e-05
6 *341:7 3.24493e-05
7 *341:8 7.366e-05

*RES
1 *341:3 *341:7 0.193051
2 *341:7 *723:Y 1.39999998
3 *341:8 *341:7 1.39999998
4 *341:6 *717:B 1.39999998
5 *341:5 *341:8 0.497144
6 *341:4 *341:6 0.124286
7 *341:4 *341:5 1.39999998
8 *341:2 *341:4 0.0643219
*END

*D_NET *342 0.000598179

*CONN
*I *722:Y O *C 42.485 13.775 *L 0 *D OAI21XL
*I *715:B1 I *C 43.355 11.745 *L 0.00282 *D OAI32X1

*CAP
1 *722:Y 3.67996e-05
2 *715:B1 3.67996e-05
3 *342:2 0.00011946
4 *342:3 6.52304e-05
5 *342:4 0.00011946
6 *342:5 7.76002e-05
7 *342:6 7.76002e-05
8 *342:7 6.52304e-05

*RES
1 *342:5 *715:B1 1.39999998
2 *342:5 *342:6 0.497144
3 *342:7 *342:6 1.39999998
4 *342:3 *342:7 0.372858
5 *342:4 *722:Y 1.39999998
6 *342:2 *342:3 1.39999998
7 *342:2 *342:4 0.497144
*END

*D_NET *343 0.0002823

*CONN
*I *721:Y O *C 36.105 12.325 *L 0 *D NAND2XL
*I *718:B1 I *C 38.425 11.745 *L 0.00282 *D OAI32X1

*CAP
1 *721:Y 4.218e-05
2 *718:B1 3.67998e-05
3 *343:2 6.24802e-05
4 *343:3 7.042e-05
5 *343:4 7.042e-05

*RES
1 *343:4 *718:B1 1.39999998
2 *343:3 *343:4 0.372858
3 *343:2 *343:3 1.39999998
4 *721:Y *343:2 0.773337
*END

*D_NET *344 0.00148911

*CONN
*I *661:A I *C 53.505 11.745 *L 0.00172 *D CLKBUFX2
*I *720:Y O *C 45.965 16.095 *L 0 *D OAI32X1

*CAP
1 *661:A 3.67995e-05
2 *720:Y 3.67995e-05
3 *344:2 0.00018789
4 *344:3 0.000188091
5 *344:4 6.8909e-05
6 *344:5 6.80313e-05
7 *344:6 9.76986e-05
8 *344:7 0.000219540508
9 *344:8 0.000104311
10 *344:9 0.00021886
11 *344:10 0.000131091
12 *344:11 0.000131091

*RES
1 *344:10 *661:A 1.39999
2 *344:10 *344:11 1.11857
3 *344:4 *344:11 1.39999
4 *344:5 *344:4 0.372857
5 *344:5 *344:2 0.124278
6 *344:3 *344:2 1.36715
7 *344:9 *344:3 0.124278
8 *344:7 *344:9 1.49142861
9 *344:8 *720:Y 1.39999
10 *344:6 *344:7 1.39999
11 *344:6 *344:8 0.745714
*END

*D_NET *345 0.000434519

*CONN
*I *719:Y O *C 34.945 20.155 *L 0 *D OAI211X1
*I *716:A I *C 35.815 16.965 *L 0.00157 *D NAND2XL

*CAP
1 *719:Y 3.67999e-05
2 *716:A 3.84785e-05
3 *345:2 5.48806e-05
4 *345:3 4.36794e-05
5 *345:4 0.00013034
6 *345:5 0.00013034

*RES
1 *345:5 *719:Y 1.39999998
2 *345:4 *345:5 1.24286
3 *345:3 *345:4 1.39999998
4 *345:2 *716:A 0.580008
5 *345:2 *345:3 0.193329
*END

*D_NET *346 0.00274729

*CONN
*I *660:A I *C 32.625 27.405 *L 0.00172 *D CLKBUFX2
*I *718:Y O *C 38.715 10.875 *L 0 *D OAI32X1

*CAP
1 *660:A 3.67973e-05
2 *718:Y 3.67973e-05
3 *346:2 0.00070906
4 *346:3 0.00070906
5 *346:4 0.000176564
6 *346:5 0.000176564
7 *346:6 9.12846e-05
8 *346:7 9.12846e-05
9 *346:8 0.000108261
10 *346:9 0.000108261
11 *346:10 9.14253e-05
12 *346:11 9.14253e-05
13 *346:12 7.97077e-05
14 *346:13 7.90261e-05
15 *346:14 8.053e-05
16 *346:15 8.12116e-05

*RES
1 *346:7 *718:Y 1.4
2 *346:7 *346:6 0.621391
3 *346:15 *346:6 1.4
4 *346:14 *346:15 0.372834
5 *346:4 *346:14 0.124278
6 *346:5 *346:4 1.24286
7 *346:5 *346:13 0.124278
8 *346:12 *346:13 0.372834
9 *346:3 *346:12 1.4
10 *346:3 *346:2 5.34428549
11 *346:10 *346:2 1.4
12 *346:8 *660:A 1.4
13 *346:11 *346:10 0.621391
14 *346:9 *346:8 0.74575
15 *346:9 *346:11 1.4
*END

*D_NET *347 0.00186915

*CONN
*I *667:A I *C 20.445 19.575 *L 0.00172 *D CLKBUFX2
*I *717:Y O *C 16.675 25.085 *L 0 *D NOR2XL

*CAP
1 *667:A 3.68047e-05
2 *717:Y 2.12071e-05
3 *347:2 0.000167165
4 *347:3 0.000167165
5 *347:5 0.00065066
6 *347:6 4.17491e-05
7 *347:7 0.00065066
8 *347:8 5.40107e-05
9 *347:9 4.72693e-05
10 *347:10 3.24461e-05

*RES
1 *717:Y *347:8 0.386665
2 *347:8 *347:9 0.386665
3 *347:6 *347:9 0.193353
4 *347:7 *347:6 1.39998
5 *347:5 *347:7 2.6099999
6 *347:3 *347:5 1.39998
7 *347:3 *347:2 1.49142
8 *347:10 *667:A 1.39998
9 *347:10 *347:2 1.39998
10 *347:4 *347:10 0.193074
*END

*D_NET *348 0.00039661

*CONN
*I *716:Y O *C 36.395 17.545 *L 0 *D NAND2XL
*I *693:D I *C 36.975 14.645 *L 0.0016 *D DFFQX1

*CAP
1 *716:Y 3.67992e-05
2 *693:D 3.67992e-05
3 *348:2 3.91004e-05
4 *348:3 0.00014254
5 *348:4 0.00014137

*RES
1 *348:3 *693:D 1.39999998
2 *348:3 *348:4 0.870001
3 *348:2 *348:4 0.124286
4 *716:Y *348:2 1.39999998
*END

*D_NET *349 0.000553442

*CONN
*I *668:A I *C 45.385 11.745 *L 0.00172 *D CLKBUFX2
*I *715:Y O *C 43.065 10.875 *L 0 *D OAI32X1

*CAP
1 *668:A 3.68012e-05
2 *715:Y 3.68012e-05
3 *349:2 3.1341e-05
4 *349:3 3.1341e-05
5 *349:6 3.29994e-05
6 *349:7 3.29994e-05
7 *349:8 0.00017558
8 *349:9 0.00017558

*RES
1 *349:2 *668:A 1.39999998
2 *349:5 *349:2 0.18284
3 *349:3 *349:2 0.124286
4 *349:9 *349:3 1.39999998
5 *349:8 *349:9 0.994287
6 *349:7 *349:8 1.39999998
7 *349:6 *349:7 0.124286
8 *349:6 *715:Y 1.39999998
9 *349:4 *349:6 0.0643219
*END

*D_NET *350 0.000399889

*CONN
*I *713:Y O *C 14.645 27.115 *L 0 *D NOR2XL
*I *712:B0 I *C 12.325 27.695 *L 0.00166 *D AOI21XL

*CAP
1 *713:Y 2.74906e-05
2 *712:B0 3.89597e-05
3 *350:2 4.68001e-05
4 *350:3 6.624e-05
5 *350:4 4.79706e-05
6 *350:5 3.92801e-05
7 *350:6 3.92801e-05
8 *350:7 5.47699e-05
9 *350:8 3.91001e-05

*RES
1 *350:7 *713:Y 0.580008
2 *350:8 *350:7 1.39999998
3 *350:6 *350:8 0.124286
4 *350:5 *350:6 0.124286
5 *350:2 *350:5 0.124286
6 *350:2 *350:4 0.248572
7 *350:3 *350:4 1.39999998
8 *712:B0 *350:3 0.580008
*END

*D_NET *351 0.00136125

*CONN
*I *714:Y O *C 17.835 27.985 *L 0 *D NAND2BXL
*I *711:AN I *C 25.375 27.695 *L 0.00178 *D NAND2BX1
*I *709:B I *C 22.765 27.405 *L 0.00171 *D NOR2XL
*I *708:A1 I *C 21.025 27.985 *L 0.00163 *D AOI21XL

*CAP
1 *714:Y 3.67982e-05
2 *711:AN 3.67982e-05
3 *709:B 3.67982e-05
4 *708:A1 3.67982e-05
5 *351:4 4.63492e-05
6 *351:5 4.63492e-05
7 *351:6 0.000128691
8 *351:7 0.000171121
9 *351:11 3.24499e-05
10 *351:12 0.00015825
11 *351:13 0.00020068
12 *351:14 3.24499e-05
13 *351:15 3.24499e-05
14 *351:6 *42:8 7.257e-05
15 *351:7 *42:9 7.257e-05
16 *351:6 *42:9 1.25e-05
17 *351:7 *42:10 1.25e-05
18 *351:7 *42:9 7.28e-05
19 *351:13 *42:10 7.28e-05
20 *351:13 *42:9 2.476e-05
21 *351:12 *42:10 2.47599957e-05

*RES
1 *351:15 *711:AN 1.39999998
2 *351:10 *351:15 0.193051
3 *351:4 *708:A1 1.39999998
4 *351:14 *709:B 1.39999998
5 *351:9 *351:14 0.193051
6 *351:6 *351:15 1.39999998
7 *351:5 *351:4 0.248572
8 *351:7 *351:14 1.39999998
9 *351:7 *351:6 1.11857
10 *351:13 *351:5 1.39999998
11 *351:13 *351:7 0.745715
12 *351:12 *351:13 1.36714
13 *351:11 *351:12 1.39999998
14 *351:11 *714:Y 1.39999998
15 *351:8 *351:11 0.193051
*END

*D_NET *352 0.000507939

*CONN
*I *712:Y O *C 12.505 28.06 *L 0 *D AOI21XL
*I *710:B I *C 12.325 24.795 *L 0.00171 *D NOR2XL

*CAP
1 *712:Y 3.6801e-05
2 *710:B 3.6801e-05
3 *352:2 4.3301e-05
4 *352:3 4.4471e-05
5 *352:4 0.00017387
6 *352:5 0.0001727

*RES
1 *352:4 *710:B 1.39999998
2 *352:4 *352:5 0.745715
3 *352:3 *712:Y 1.39999998
4 *352:2 *352:5 0.124286
5 *352:2 *352:3 0.248572
*END

*D_NET *353 0.00058585

*CONN
*I *710:Y O *C 12.035 25.085 *L 0 *D NOR2XL
*I *685:D I *C 10.875 27.405 *L 0.00216 *D DFFHQX1

*CAP
1 *710:Y 3.67996e-05
2 *685:D 3.67996e-05
3 *353:2 9.024e-05
4 *353:3 8.90393e-05
5 *353:4 8.742e-05
6 *353:5 8.742e-05
7 *353:6 3.90703e-05
8 *353:7 5.95293e-05
9 *353:8 5.95293e-05

*RES
1 *353:5 *710:Y 1.39999998
2 *353:5 *353:4 0.372858
3 *353:8 *353:4 1.39999998
4 *353:7 *353:8 0.372858
5 *353:2 *685:D 1.39999998
6 *353:6 *353:7 1.39999998
7 *353:3 *353:2 0.621429
8 *353:3 *353:6 0.124286
*END

*D_NET *354 0.00199824

*CONN
*I *711:Y O *C 26.245 28.275 *L 0 *D NAND2BX1
*I *706:B I *C 29.725 27.405 *L 0.00167 *D NAND2XL
*I *705:C I *C 30.595 24.795 *L 0.00278 *D NOR3X1
*I *702:A2 I *C 32.915 24.215 *L 0.00278 *D AOI32X1

*CAP
1 *711:Y 3.68008e-05
2 *706:B 3.68008e-05
3 *705:C 3.68008e-05
4 *702:A2 3.68008e-05
5 *354:4 8.8261e-05
6 *354:5 8.8261e-05
7 *354:6 4.06189e-05
8 *354:7 4.17902e-05
9 *354:8 5.89591e-05
10 *354:9 4.32996e-05
11 *354:10 6.62e-05
12 *354:11 0.000103969
13 *354:12 8.13414e-05
14 *354:13 8.06607e-05
15 *354:14 4.01094e-05
16 *354:16 0.000109931
17 *354:17 0.00013855
18 *354:18 6.17497e-05
19 *354:19 3.24499e-05
20 *354:18 *335:3 6.071e-05
21 *354:17 *335:4 6.071e-05
22 *354:17 *335:5 3.94e-05
23 *354:16 *335:6 3.94e-05
24 *354:17 *335:3 4.696e-05
25 *354:16 *335:4 4.696e-05
26 *354:12 *335:3 2.919e-05
27 *354:13 *335:4 2.91899915e-05
28 *354:17 *160:11 7.162e-05
29 *354:16 *160:12 7.162e-05
30 *354:17 *160:12 3.643e-05
31 *354:16 *160:13 3.643e-05
32 *354:11 *160:14 2.512e-05
33 *354:14 *160:15 2.512e-05
34 *354:11 *160:15 3.7e-05
35 *354:14 *160:16 3.7e-05
36 *354:10 *160:17 2.291e-05
37 *354:11 *160:18 2.291e-05
38 *354:4 *160:19 1.81e-05
39 *354:5 *160:20 1.80999951e-05

*RES
1 *354:7 *705:C 1.39999
2 *354:7 *354:6 0.24856
3 *354:9 *354:6 0.12428
4 *354:9 *354:8 0.24856
5 *354:10 *706:B 1.39999
6 *354:4 *711:Y 1.39999
7 *354:11 *354:8 0.24856
8 *354:11 *354:10 0.621425
9 *354:5 *354:4 0.870009
10 *354:14 *354:11 0.621425
11 *354:16 *354:5 1.39999
12 *354:17 *354:14 1.39999
13 *354:16 *354:17 1.61571431
14 *354:17 *354:18 0.621425
15 *354:13 *354:18 0.12428
16 *354:13 *354:12 0.745705
17 *354:19 *702:A2 1.39999
18 *354:19 *354:12 1.39999
19 *354:15 *354:19 0.193064
*END

*D_NET *355 0.0003246

*CONN
*I *709:Y O *C 22.475 27.115 *L 0 *D NOR2XL
*I *708:B0 I *C 21.605 27.695 *L 0.00166 *D AOI21XL

*CAP
1 *709:Y 3.68002e-05
2 *708:B0 3.68002e-05
3 *355:2 4.55991e-05
4 *355:3 7.57499e-05
5 *355:4 4.97505e-05
6 *355:5 7.99e-05

*RES
1 *355:4 *709:Y 1.39999998
2 *355:4 *355:5 0.372858
3 *355:3 *355:5 0.372858
4 *355:2 *355:3 0.248572
5 *708:B0 *355:2 1.39999998
*END

*D_NET *356 0.00035848

*CONN
*I *708:Y O *C 21.425 28.06 *L 0 *D AOI21XL
*I *707:B I *C 22.765 24.795 *L 0.00171 *D NOR2XL

*CAP
1 *708:Y 3.68011e-05
2 *707:B 3.68011e-05
3 *356:2 6.99401e-05
4 *356:3 3.97897e-05
5 *356:4 7.24995e-05
6 *356:5 0.00010265

*RES
1 *356:4 *707:B 1.39999998
2 *356:4 *356:5 0.745715
3 *356:3 *708:Y 1.39999998
4 *356:2 *356:5 0.372858
5 *356:2 *356:3 0.248572
*END

*D_NET *357 0.000478129

*CONN
*I *707:Y O *C 23.055 25.085 *L 0 *D NOR2XL
*I *686:D I *C 23.925 21.895 *L 0.00164 *D DFFQXL

*CAP
1 *707:Y 3.67984e-05
2 *686:D 3.67984e-05
3 *357:2 7.03285e-05
4 *357:3 0.000152071
5 *357:4 0.00018213

*RES
1 *357:3 *686:D 1.39999998
2 *357:3 *357:4 1.36714
3 *357:2 *357:4 0.372858
4 *707:Y *357:2 1.39999998
*END

*D_NET *358 0.000346221

*CONN
*I *706:Y O *C 29.725 27.985 *L 0 *D NAND2XL
*I *703:B0 I *C 28.275 27.405 *L 0.00162 *D OAI22XL

*CAP
1 *706:Y 3.68007e-05
2 *703:B0 3.68007e-05
3 *358:4 3.24504e-05
4 *358:5 0.00010386
5 *358:6 3.24504e-05
6 *358:7 0.00010386

*RES
1 *358:3 *358:6 0.193051
2 *358:6 *706:Y 1.39999998
3 *358:7 *358:6 1.39999998
4 *358:5 *358:7 0.745715
5 *358:4 *703:B0 1.39999998
6 *358:4 *358:5 1.39999998
7 *358:2 *358:4 0.193051
*END

*D_NET *359 0.000509612

*CONN
*I *705:Y O *C 30.305 24.215 *L 0 *D NOR3X1
*I *704:A I *C 30.885 27.695 *L 0.00273 *D INVX1
*I *702:B0 I *C 31.465 24.505 *L 0.00266 *D AOI32X1

*CAP
1 *705:Y 3.68005e-05
2 *704:A 3.68005e-05
3 *702:B0 3.68005e-05
4 *359:3 0.00014279
5 *359:4 0.00012049
6 *359:5 6.07198e-05
7 *359:6 7.52112e-05

*RES
1 *359:5 *702:B0 1.39999998
2 *359:4 *704:A 1.39999998
3 *359:5 *359:6 0.372858
4 *359:3 *359:4 0.994287
5 *359:3 *359:6 0.248572
6 *705:Y *359:3 1.39999998
*END

*D_NET *360 0.00078883

*CONN
*I *704:Y O *C 30.5125 27.695 *L 0 *D INVX1
*I *703:A1 I *C 27.405 27.695 *L 0.00171 *D OAI22XL

*CAP
1 *704:Y 3.68002e-05
2 *703:A1 3.68002e-05
3 *360:2 4.31513e-05
4 *360:3 4.19812e-05
5 *360:4 8.249e-05
6 *360:5 8.249e-05
7 *360:6 0.00021301
8 *360:7 0.00021301
9 *360:8 3.91014e-05

*RES
1 *360:8 *704:Y 1.39999998
2 *360:3 *360:8 0.124286
3 *360:3 *360:2 0.248572
4 *360:6 *360:2 1.39999998
5 *360:7 *360:6 1.24286
6 *360:4 *360:7 1.39999998
7 *360:5 *360:4 0.372858
8 *703:A1 *360:5 1.39999998
*END

*D_NET *361 0.000554751

*CONN
*I *659:A I *C 24.215 27.405 *L 0.00172 *D CLKBUFX2
*I *703:Y O *C 27.695 27.115 *L 0 *D OAI22XL

*CAP
1 *659:A 3.68011e-05
2 *703:Y 3.68011e-05
3 *361:2 3.06503e-05
4 *361:3 3.06503e-05
5 *361:6 0.0001937
6 *361:7 3.24503e-05
7 *361:8 0.0001937

*RES
1 *361:5 *361:7 0.193051
2 *361:7 *703:Y 1.39999
3 *361:8 *361:7 1.39999
4 *361:6 *361:8 1.49142861
5 *361:3 *361:6 1.39999
6 *361:2 *659:A 1.39999
7 *361:3 *361:2 0.124278
8 *361:4 *361:2 0.182856
*END

*D_NET *362 0.000893601

*CONN
*I *702:Y O *C 32.335 24.795 *L 0 *D AOI32X1
*I *701:A I *C 36.115 24.7325 *L 0.00163 *D INVXL

*CAP
1 *702:Y 3.6801e-05
2 *701:A 3.6801e-05
3 *362:2 8.06806e-05
4 *362:3 8.06806e-05
5 *362:4 0.00023311
6 *362:5 0.00023311
7 *362:6 9.62106e-05
8 *362:7 9.62106e-05

*RES
1 *362:3 *701:A 1.39999
2 *362:3 *362:2 0.621425
3 *362:4 *362:2 1.39999
4 *362:5 *362:4 1.61571431
5 *362:6 *362:5 1.39999
6 *362:7 *362:6 0.621425
7 *702:Y *362:7 1.39999
*END

*D_NET *363 0.000434019

*CONN
*I *662:A I *C 37.845 24.795 *L 0.00172 *D CLKBUFX2
*I *701:Y O *C 36.4775 24.795 *L 0 *D INVXL

*CAP
1 *662:A 3.67987e-05
2 *701:Y 3.67987e-05
3 *363:2 5.93699e-05
4 *363:3 0.00012084
5 *363:4 5.93699e-05
6 *363:5 0.00012084

*RES
1 *363:4 *662:A 1.39999998
2 *363:4 *363:5 0.248572
3 *363:3 *363:5 0.621429
4 *363:2 *363:3 0.248572
5 *701:Y *363:2 1.39999998
*END

*D_NET *364 0.00107582

*CONN
*I *913:A I *C 18.415 43.065 *L 0.00157 *D NAND2XL
*I *912:A0 I *C 17.835 43.355 *L 0.00271 *D OAI21X1
*I *874:Q O *C 15.225 39.875 *L 0 *D DFFQX1
*I *846:A I *C 18.705 45.385 *L 0.00273 *D NOR4X1

*CAP
1 *913:A 5.30991e-05
2 *912:A0 2.58204e-05
3 *874:Q 3.68007e-05
4 *846:A 3.68007e-05
5 *364:4 5.47103e-05
6 *364:5 5.35394e-05
7 *364:6 6.14899e-05
8 *364:7 7.93002e-05
9 *364:8 4.91002e-05
10 *364:9 0.00010018
11 *364:10 0.00010018
12 *364:11 7.92497e-05
13 *364:12 7.92497e-05
14 *364:9 *113:8 0.00013315
15 *364:10 *113:9 0.000133150005

*RES
1 *364:4 *846:A 1.39999998
2 *364:5 *364:4 0.372858
3 *912:A0 *913:A 0.386658
4 *364:6 *364:5 0.124286
5 *364:7 *913:A 1.39999998
6 *364:7 *364:6 0.621429
7 *364:8 *364:7 0.372858
8 *364:9 *364:8 1.39999998
9 *364:10 *364:9 1.36714
10 *364:12 *364:10 1.39999998
11 *364:11 *364:12 0.497144
12 *874:Q *364:11 1.39999998
*END

*D_NET *365 0.00136798

*CONN
*I *925:A I *C 21.025 45.675 *L 0.00157 *D NAND2XL
*I *923:A0 I *C 19.865 43.355 *L 0.00157 *D OA21XL
*I *873:Q O *C 18.705 38.425 *L 0 *D DFFQX1
*I *846:B I *C 19.285 45.675 *L 0.00273 *D NOR4X1

*CAP
1 *925:A 1.28212e-05
2 *923:A0 3.67994e-05
3 *873:Q 3.67994e-05
4 *846:B 3.67994e-05
5 *365:4 8.60786e-05
6 *365:5 0.000101769
7 *365:6 0.00010294
8 *365:7 0.00025286
9 *365:8 0.000276121523
10 *365:9 0.00015961
11 *365:10 0.000106231
12 *365:11 7.45973e-05
13 *365:12 4.01026e-05
14 *365:13 4.44508e-05

*RES
1 *365:12 *925:A 0.193347
2 *365:13 *365:12 1.4
3 *365:6 *846:B 1.4
4 *365:11 *365:13 0.248571
5 *365:5 *365:6 0.621429
6 *365:10 *365:11 0.372857
7 *365:5 *365:9 0.124286
8 *365:9 *365:10 0.372857
9 *365:8 *923:A0 1.4
10 *365:8 *365:9 0.497143
11 *365:7 *365:8 1.98857141
12 *365:4 *365:7 0.497143
13 *873:Q *365:4 1.4
*END

*D_NET *366 0.00374196

*CONN
*I *949:B I *C 21.895 54.085 *L 0.00285 *D NAND3X1
*I *909:A I *C 26.825 58.725 *L 0.00157 *D NAND2XL
*I *907:A0 I *C 19.285 59.015 *L 0.00271 *D OAI21X1
*I *872:Q O *C 23.055 64.525 *L 0 *D DFFQX1
*I *843:A I *C 25.085 53.795 *L 0.00259 *D NOR3X1

*CAP
1 *949:B 3.67986e-05
2 *909:A 3.67986e-05
3 *907:A0 3.67986e-05
4 *872:Q 3.67986e-05
5 *843:A 3.67986e-05
6 *366:5 5.13832e-05
7 *366:6 5.01785e-05
8 *366:7 5.64535e-05
9 *366:8 5.64535e-05
10 *366:9 4.81011e-05
11 *366:10 4.81011e-05
12 *366:11 8.41876e-05
13 *366:12 8.41876e-05
14 *366:13 0.000159691
15 *366:14 0.000159691
16 *366:15 0.000185621
17 *366:16 0.000185621
18 *366:17 0.000279542
19 *366:18 0.000279542
20 *366:19 4.19011e-05
21 *366:20 4.19011e-05
22 *366:21 0.00021132
23 *366:22 0.00035088
24 *366:23 0.000182553
25 *366:25 3.24511e-05
26 *366:26 4.29933e-05
27 *366:27 3.90688e-05
28 *366:17 *367:10 9.41e-06
29 *366:18 *367:5 9.41e-06
30 *366:15 *367:3 0.00015792
31 *366:16 *367:4 0.000157919997
32 *366:13 *490:4 0.00015959
33 *366:14 *490:5 0.000159590004
34 *366:11 *86:11 6.203e-05
35 *366:12 *86:10 6.203e-05
36 *366:11 *86:7 4.86e-06
37 *366:12 *86:8 4.86e-06
38 *366:7 *86:11 4.927e-05
39 *366:8 *86:10 4.92700059e-05

*RES
1 *366:16 *907:A0 1.40001
2 *366:27 *843:A 1.40001
3 *366:9 *909:A 1.40001
4 *366:16 *366:15 1.61572
5 *366:19 *872:Q 1.40001
6 *366:6 *366:27 0.124284
7 *366:10 *366:9 0.248568
8 *366:18 *366:15 1.40001
9 *366:20 *366:19 0.248568
10 *366:6 *366:5 0.372851
11 *366:13 *366:10 1.40001
12 *366:18 *366:17 1.61572
13 *366:17 *366:20 1.40001
14 *366:11 *366:5 1.40001
15 *366:14 *366:13 1.61572
16 *366:21 *366:17 1.40001
17 *366:12 *366:11 0.745703
18 *366:22 *366:14 1.40001
19 *366:22 *366:21 1.86428571
20 *366:23 *366:12 1.40001
21 *366:23 *366:22 1.49143
22 *366:26 *366:23 0.248568
23 *366:7 *366:26 1.40001
24 *366:8 *366:7 0.497135
25 *366:25 *949:B 1.40001
26 *366:25 *366:8 1.40001
27 *366:24 *366:25 0.193068
*END

*D_NET *367 0.00175329

*CONN
*I *787:A I *C 19.865 64.235 *L 0.00155 *D DLY2X1
*I *871:Q O *C 17.255 60.755 *L 0 *D DFFQX1
*I *847:B I *C 18.995 56.115 *L 0.00175 *D OR4XL

*CAP
1 *787:A 3.67997e-05
2 *871:Q 3.67997e-05
3 *847:B 3.67997e-05
4 *367:3 0.00022211
5 *367:4 0.00022211
6 *367:5 0.000126
7 *367:6 0.000105481
8 *367:7 4.11209e-05
9 *367:8 4.11209e-05
10 *367:9 6.44521e-05
11 *367:10 5.4332e-05
12 *367:11 6.44521e-05
13 *367:10 *366:17 9.41e-06
14 *367:5 *366:18 9.41e-06
15 *367:3 *366:15 0.00015792
16 *367:4 *366:16 0.000157919997
17 *367:3 *26:13 8.486e-05
18 *367:4 *26:11 8.486e-05
19 *367:3 *26:11 9.867e-05
20 *367:4 *26:12 9.86699907e-05

*RES
1 *367:11 *787:A 1.39999
2 *367:4 *847:B 1.39999
3 *367:9 *367:11 0.497158
4 *367:4 *367:3 2.98285723
5 *367:10 *367:9 1.39999
6 *367:5 *367:3 1.39999
7 *367:5 *367:10 0.372857
8 *367:6 *367:5 0.745714
9 *367:7 *367:6 1.39999
10 *367:8 *367:7 0.372857
11 *871:Q *367:8 1.39999
*END

*D_NET *368 0.0071935

*CONN
*I *790:A I *C 67.425 61.335 *L 0.00172 *D CLKBUFX2
*I *870:Q O *C 11.165 64.525 *L 0 *D DFFQX1
*I *847:D I *C 18.415 56.115 *L 0.00161 *D OR4XL

*CAP
1 *790:A 3.68017e-05
2 *870:Q 3.68017e-05
3 *847:D 3.68017e-05
4 *368:3 6.53598e-05
5 *368:4 6.53598e-05
6 *368:5 0.000239473
7 *368:6 0.000240667
8 *368:7 0.00107191
9 *368:8 0.00107171
10 *368:9 0.000274001
11 *368:10 0.000274001
12 *368:11 0.000231131
13 *368:12 0.000231131
14 *368:13 0.000147288
15 *368:14 0.000319913
16 *368:15 0.000269077
17 *368:16 0.000269077
18 *368:17 0.000162483
19 *368:18 0.000146045
20 *368:19 0.000241991
21 *368:20 0.000163514
22 *368:21 0.000163514
23 *368:22 4.44891e-05
24 *368:23 6.07636e-05
25 *368:24 4.44891e-05
26 *368:25 5.98968e-05
27 *368:26 0.000170727
28 *368:27 7.8085e-05
29 *368:28 0.000170727
30 *368:29 0.000130752
31 *368:30 0.000131963
32 *368:31 9.06793e-05
33 *368:32 4.46527e-05
34 *368:33 5.36159e-05
35 *368:15 *139:257 5.699e-05
36 *368:16 *139:258 5.699e-05
37 *368:20 *139:258 3.995e-05
38 *368:21 *139:259 3.995e-05
39 *368:17 *139:258 1.581e-05
40 *368:18 *139:259 1.581e-05
41 *368:7 *139:260 5.71e-06
42 *368:8 *139:261 5.71e-06
43 *368:7 *139:256 3.606e-05
44 *368:8 *139:254 3.606e-05
45 *368:31 *139:254 2.283e-05
46 *368:27 *139:255 2.28300063e-05

*RES
1 *368:4 *790:A 1.40002
2 *368:4 *368:3 0.372886
3 *368:33 *368:3 1.40002
4 *368:13 *368:33 0.372886
5 *368:14 *368:13 0.870027
6 *368:19 *368:14 1.98856
7 *368:19 *368:15 0.24863
8 *368:16 *368:15 2.85859
9 *368:17 *368:16 0.24863
10 *368:18 *368:17 0.870027
11 *368:18 *368:20 0.124255
12 *368:21 *368:20 1.74005
13 *368:9 *368:21 0.124255
14 *368:10 *368:9 2.36145
15 *368:10 *368:11 0.124255
16 *368:6 *847:D 1.40002
17 *368:12 *368:11 1.98856
18 *368:6 *368:5 1.36717
19 *368:7 *368:12 0.124255
20 *368:29 *368:5 0.124255
21 *368:8 *368:7 7.82999992
22 *368:29 *368:30 1.36717
23 *368:8 *368:32 0.124255
24 *368:31 *368:30 1.40002
25 *368:31 *368:32 0.24863
26 *368:27 *368:31 1.11854
27 *368:27 *368:28 0.124255
28 *368:26 *368:28 1.49142
29 *368:25 *368:26 0.124255
30 *368:23 *368:25 0.372886
31 *368:24 *870:Q 1.40002
32 *368:22 *368:23 1.40002
33 *368:22 *368:24 0.24863
*END

*D_NET *369 0.00585431

*CONN
*I *796:A I *C 31.465 32.625 *L 0.00172 *D CLKBUFX2
*I *869:Q O *C 11.455 64.525 *L 0 *D DFFQX1
*I *843:B I *C 25.375 53.795 *L 0.00272 *D NOR3X1

*CAP
1 *796:A 3.67989e-05
2 *869:Q 3.67989e-05
3 *843:B 3.67989e-05
4 *369:3 5.93841e-05
5 *369:4 5.93841e-05
6 *369:5 0.000519785
7 *369:6 0.000520993
8 *369:7 0.000153239
9 *369:8 0.000169882
10 *369:9 0.000289042
11 *369:10 0.000311022
12 *369:11 0.00052275
13 *369:12 0.000506992
14 *369:13 5.49074e-05
15 *369:14 8.13426e-05
16 *369:15 8.13426e-05
17 *369:17 3.90709e-05
18 *369:18 3.37995e-05
19 *369:19 5.99101e-05
20 *369:20 0.000102171
21 *369:21 0.00073346
22 *369:22 0.000691188
23 *369:11 *89:8 0.00034235
24 *369:12 *89:9 0.00034235
25 *369:7 *89:12 3.477e-05
26 *369:8 *89:11 3.47700244e-05

*RES
1 *369:17 *869:Q 1.39998
2 *369:17 *369:5 0.124331
3 *369:6 *369:5 4.2257
4 *369:12 *369:6 1.39998
5 *369:12 *369:11 3.48002
6 *369:8 *369:11 0.248558
7 *369:3 *843:B 1.39998
8 *369:8 *369:7 1.98857
9 *369:4 *369:3 0.248558
10 *369:7 *369:13 0.124331
11 *369:10 *369:4 1.39998
12 *369:13 *369:10 0.372889
13 *369:10 *369:9 2.61002
14 *369:22 *369:9 1.39998
15 *369:21 *369:22 6.83571434
16 *369:15 *796:A 1.39998
17 *369:20 *369:21 0.870006
18 *369:15 *369:14 0.621448
19 *369:19 *369:20 0.372889
20 *369:18 *369:14 1.39998
21 *369:18 *369:19 1.39998
22 *369:16 *369:18 0.193068
*END

*D_NET *370 0.00220443

*CONN
*I *959:B I *C 16.965 54.085 *L 0.00158 *D NAND4XL
*I *902:A I *C 6.235 56.115 *L 0.00157 *D NAND2XL
*I *901:A0 I *C 12.325 55.825 *L 0.00271 *D OAI21X1
*I *867:Q O *C 16.095 54.085 *L 0 *D DFFQX1
*I *847:A I *C 19.575 56.115 *L 0.00181 *D OR4XL

*CAP
1 *959:B 3.68007e-05
2 *902:A 3.68007e-05
3 *901:A0 3.68007e-05
4 *867:Q 3.68007e-05
5 *847:A 3.68007e-05
6 *370:5 5.43277e-05
7 *370:6 5.43277e-05
8 *370:7 6.50683e-05
9 *370:8 0.000135793
10 *370:9 8.23427e-05
11 *370:10 8.23427e-05
12 *370:11 0.000225339
13 *370:12 0.000203791
14 *370:13 0.000173232
15 *370:14 0.000194779
16 *370:15 0.000103181
17 *370:16 0.0002905
18 *370:17 0.0002905
19 *370:20 3.24521e-05
20 *370:21 3.24521e-05

*RES
1 *370:6 *902:A 1.39998
2 *370:6 *370:5 0.372846
3 *370:17 *370:5 1.39998
4 *370:17 *370:16 2.6099999
5 *370:7 *370:16 1.39998
6 *370:9 *847:A 1.39998
7 *370:8 *901:A0 1.39998
8 *370:8 *370:7 0.372846
9 *370:10 *370:9 0.869987
10 *370:15 *370:8 0.869987
11 *370:21 *959:B 1.39998
12 *370:19 *370:21 0.193074
13 *370:13 *370:10 1.39998
14 *370:12 *370:15 1.39998
15 *370:14 *370:21 1.39998
16 *370:14 *370:13 1.11858
17 *370:12 *370:11 1.61572
18 *370:11 *370:14 0.372846
19 *370:20 *370:11 1.39998
20 *370:20 *867:Q 1.39998
21 *370:18 *370:20 0.193074
*END

*D_NET *371 0.00443666

*CONN
*I *793:A I *C 17.835 19.575 *L 0.00172 *D CLKBUFX2
*I *866:Q O *C 16.675 50.315 *L 0 *D DFFQX1
*I *847:C I *C 18.705 56.115 *L 0.00167 *D OR4XL

*CAP
1 *793:A 3.68018e-05
2 *866:Q 3.68018e-05
3 *847:C 3.68018e-05
4 *371:3 0.000505804
5 *371:4 0.000505771
6 *371:5 0.000498522
7 *371:6 0.000545410352
8 *371:7 5.65509e-05
9 *371:8 0.000102241
10 *371:9 0.000178008
11 *371:10 0.000146691
12 *371:11 0.000182644
13 *371:12 0.000198298
14 *371:13 0.000137453
15 *371:14 0.000138652
16 *371:15 0.000235716
17 *371:16 0.000234551
18 *371:18 0.000140058
19 *371:19 0.000124404
20 *371:20 0.000128598
21 *371:21 0.000128598
22 *371:22 6.85518e-05
23 *371:23 6.97503e-05

*RES
1 *371:7 *793:A 1.40001
2 *371:8 *371:7 0.372865
3 *371:6 *371:8 0.497177
4 *371:6 *371:5 2.85861
5 *371:4 *371:5 0.124312
6 *371:4 *371:3 4.722857
7 *371:3 *371:10 0.124312
8 *371:10 *371:9 1.36715
9 *371:23 *847:C 1.40001
10 *371:12 *371:9 0.372865
11 *371:22 *371:23 0.497177
12 *371:12 *371:11 1.86425
13 *371:13 *371:22 0.124312
14 *371:11 *371:18 0.248552
15 *371:14 *371:13 1.49146
16 *371:18 *371:19 1.36715
17 *371:21 *371:14 1.40001
18 *371:19 *371:16 0.124312
19 *371:20 *371:21 0.745729
20 *371:16 *371:15 1.86425
21 *371:15 *371:20 1.40001
22 *371:15 *866:Q 1.40001
23 *371:17 *371:15 0.193062
*END

*D_NET *372 0.00464985

*CONN
*I *791:A I *C 6.235 16.965 *L 0.00172 *D CLKBUFX2
*I *865:Q O *C 16.675 45.095 *L 0 *D DFFQX1
*I *846:C I *C 19.865 45.675 *L 0.00274 *D NOR4X1

*CAP
1 *791:A 3.68034e-05
2 *865:Q 3.68034e-05
3 *846:C 3.68034e-05
4 *372:3 0.00055388
5 *372:4 0.00056831
6 *372:5 0.000145999
7 *372:6 0.000161661
8 *372:7 0.000125551
9 *372:8 0.000125551
10 *372:9 0.000521551
11 *372:10 0.000388508
12 *372:11 4.66199e-05
13 *372:12 4.54492e-05
14 *372:14 0.000109447
15 *372:15 0.000123877
16 *372:16 4.43132e-05
17 *372:17 7.44565e-05
18 *372:18 0.000361391
19 *372:19 0.000345729
20 *372:20 3.24501e-05
21 *372:21 6.37988e-05
22 *372:22 6.37988e-05
23 *372:23 0.000166855
24 *372:19 *89:6 5.334e-05
25 *372:18 *89:7 5.334e-05
26 *372:5 *89:4 8.335e-05
27 *372:6 *89:5 8.335e-05
28 *372:11 *89:4 6.144e-05
29 *372:12 *89:5 6.144e-05
30 *372:17 *89:2 3.7e-05
31 *372:16 *89:3 3.69999962e-05

*RES
1 *372:14 *791:A 1.40003
2 *372:14 *372:15 0.994271
3 *372:15 *372:4 0.248587
4 *372:4 *372:3 4.97142839
5 *372:8 *372:3 1.40003
6 *372:8 *372:7 1.1186
7 *372:16 *372:7 1.40003
8 *372:16 *372:17 0.372842
9 *372:17 *372:18 0.372842
10 *372:18 *372:19 3.47998
11 *372:6 *372:19 0.248587
12 *372:6 *372:5 2.23713
13 *372:12 *372:5 0.124255
14 *372:21 *846:C 1.40003
15 *372:12 *372:11 0.621429
16 *372:21 *372:22 0.248587
17 *372:10 *372:11 1.40003
18 *372:23 *372:22 1.40003
19 *372:10 *372:9 3.10714
20 *372:9 *372:23 1.36711
21 *372:20 *372:9 1.40003
22 *372:20 *865:Q 1.40003
23 *372:13 *372:20 0.193059
*END

*D_NET *373 0.00149529

*CONN
*I *815:A I *C 21.895 50.895 *L 0.00172 *D CLKBUFX2
*I *864:Q O *C 15.805 48.865 *L 0 *D DFFQX1
*I *846:D I *C 20.155 45.675 *L 0.00283 *D NOR4X1

*CAP
1 *815:A 3.67991e-05
2 *864:Q 3.67991e-05
3 *846:D 3.67991e-05
4 *373:3 0.000254929102
5 *373:4 0.000254929102
6 *373:5 6.65496e-05
7 *373:6 3.63984e-05
8 *373:7 0.000155268
9 *373:8 0.000100311
10 *373:9 0.000221211
11 *373:10 0.000221211
12 *373:12 3.24501e-05
13 *373:13 4.16382e-05

*RES
1 *373:6 *815:A 1.40001
2 *373:6 *373:5 0.248568
3 *373:3 *373:5 0.372851
4 *373:8 *846:D 1.40001
5 *373:4 *373:3 1.86428571
6 *373:8 *373:7 0.621419
7 *373:7 *373:4 0.372851
8 *373:7 *373:13 0.248568
9 *373:9 *373:13 1.40001
10 *373:10 *373:9 1.86428571
11 *373:12 *373:10 1.40001
12 *373:12 *864:Q 1.40001
13 *373:11 *373:12 0.193068
*END

*D_NET *374 0.00398923

*CONN
*I *823:A I *C 5.655 40.455 *L 0.00184 *D DLY1X4
*I *862:Q O *C 30.595 38.425 *L 0 *D DFFQXL
*I *848:A I *C 27.695 50.605 *L 0.00273 *D NOR4X1

*CAP
1 *823:A 3.67961e-05
2 *862:Q 3.67961e-05
3 *848:A 3.67961e-05
4 *374:3 2.99343e-05
5 *374:4 2.99343e-05
6 *374:5 4.63325e-05
7 *374:6 4.63325e-05
8 *374:7 0.0008191
9 *374:8 0.000713611
10 *374:9 3.97832e-05
11 *374:10 3.97832e-05
12 *374:13 0.00026136
13 *374:14 0.00026136
14 *374:15 0.000129211
15 *374:16 0.000128324
16 *374:17 5.90687e-05
17 *374:18 5.99311e-05
18 *374:19 0.000127449
19 *374:20 0.000127449
20 *374:21 0.00013931
21 *374:7 *113:8 5.013e-05
22 *374:8 *113:9 5.013e-05
23 *374:7 *113:11 4.132e-05
24 *374:8 *113:10 4.132e-05
25 *374:7 *113:13 3.828e-05
26 *374:8 *113:12 3.82800053e-05
27 *374:7 *95:12 0.0001733
28 *374:8 *95:13 0.0001733
29 *374:7 *95:8 1.364e-05
30 *374:8 *95:9 1.364e-05
31 *374:21 *95:18 2.581e-05
32 *374:7 *95:19 2.581e-05
33 *374:7 *95:18 3.718e-05
34 *374:8 *95:19 3.718e-05
35 *374:7 *95:10 3.063e-05
36 *374:8 *95:11 3.06300049e-05

*RES
1 *374:6 *823:A 1.39994
2 *374:19 *862:Q 1.39994
3 *374:6 *374:5 0.248625
4 *374:19 *374:20 1.11859
5 *374:8 *374:5 1.39994
6 *374:21 *374:20 1.39994
7 *374:8 *374:7 9.445714
8 *374:7 *374:21 1.24283
9 *374:15 *374:7 1.39994
10 *374:15 *374:16 1.11859
11 *374:13 *374:16 0.12424
12 *374:13 *374:14 2.48567
13 *374:14 *374:17 0.12424
14 *374:3 *848:A 1.39994
15 *374:12 *374:3 0.182901
16 *374:17 *374:18 0.372865
17 *374:4 *374:3 0.12424
18 *374:10 *374:18 1.39994
19 *374:9 *374:4 1.39994
20 *374:10 *374:9 0.12424
21 *374:11 *374:9 0.182901
*END

*D_NET *375 0.00348087

*CONN
*I *827:A I *C 12.905 43.065 *L 0.00184 *D DLY1X4
*I *861:Q O *C 29.725 45.095 *L 0 *D DFFQX1
*I *848:B I *C 28.275 50.895 *L 0.00273 *D NOR4X1

*CAP
1 *827:A 3.67993e-05
2 *861:Q 3.67993e-05
3 *848:B 3.67993e-05
4 *375:3 0.000262269
5 *375:4 0.000262949
6 *375:5 0.00010138
7 *375:6 0.0001007
8 *375:7 8.69574e-05
9 *375:8 8.69574e-05
10 *375:9 7.573e-05
11 *375:10 7.573e-05
12 *375:11 0.000223708
13 *375:12 0.0002991
14 *375:13 0.000109202
15 *375:17 8.87008e-05
16 *375:18 8.87008e-05
17 *375:19 3.24499e-05
18 *375:20 3.38008e-05
19 *375:21 3.24499e-05
20 *375:5 *187:29 0.00011835
21 *375:6 *187:22 0.00011835
22 *375:3 *187:29 0.00040183
23 *375:4 *187:22 0.00040183
24 *375:18 *187:29 4.864e-05
25 *375:17 *187:22 4.86399842e-05
26 *375:3 *101:10 9.604e-05
27 *375:4 *101:11 9.604e-05
28 *375:5 *101:16 1.212e-05
29 *375:6 *101:17 1.212e-05
30 *375:18 *101:4 2.786e-05
31 *375:17 *101:5 2.78600012e-05

*RES
1 *375:10 *827:A 1.39998
2 *375:10 *375:9 0.497158
3 *375:4 *375:9 1.39998
4 *375:4 *375:3 4.10142851
5 *375:17 *375:3 0.12429
6 *375:17 *375:18 1.24283
7 *375:18 *375:6 0.12429
8 *375:16 *375:21 0.193068
9 *375:21 *861:Q 1.39998
10 *375:6 *375:5 1.24283
11 *375:7 *375:21 1.39998
12 *375:13 *375:5 1.39998
13 *375:8 *375:7 0.621448
14 *375:13 *375:12 0.870027
15 *375:12 *375:8 1.39998
16 *375:12 *375:11 1.98857
17 *375:15 *375:20 0.193068
18 *375:20 *375:11 1.39998
19 *375:19 *848:B 1.39998
20 *375:19 *375:20 1.39998
21 *375:14 *375:19 0.0299772
*END

*D_NET *376 0.00271013

*CONN
*I *814:A I *C 40.745 40.455 *L 0.00172 *D CLKBUFX2
*I *860:Q O *C 34.365 43.645 *L 0 *D DFFQXL
*I *848:C I *C 28.855 50.895 *L 0.00274 *D NOR4X1

*CAP
1 *814:A 3.67988e-05
2 *860:Q 3.67988e-05
3 *848:C 3.67988e-05
4 *376:3 0.000140297
5 *376:4 0.000140297
6 *376:5 0.00034961
7 *376:6 0.00034961
8 *376:7 0.0001032
9 *376:8 0.000107868
10 *376:9 0.000119551
11 *376:10 0.000118382
12 *376:11 0.00026187
13 *376:12 0.00026187
14 *376:13 3.59613e-05
15 *376:15 3.2451e-05
16 *376:11 *104:20 5.743e-05
17 *376:12 *104:14 5.743e-05
18 *376:7 *104:21 3.7e-05
19 *376:8 *104:4 3.7e-05
20 *376:8 *104:4 4.854e-05
21 *376:13 *104:5 4.854e-05
22 *376:9 *104:19 8.383e-05
23 *376:10 *104:10 8.383e-05
24 *376:9 *104:10 6.258e-05
25 *376:10 *104:11 6.258e-05

*RES
1 *376:4 *814:A 1.40002
2 *376:4 *376:3 0.869985
3 *376:5 *376:3 1.40002
4 *376:6 *376:5 2.73428583
5 *376:13 *376:6 1.40002
6 *376:13 *376:8 0.497158
7 *376:8 *860:Q 1.40002
8 *376:8 *376:7 1.36714
9 *376:10 *376:7 0.12429
10 *376:10 *376:9 1.74001
11 *376:11 *376:9 1.40002
12 *376:12 *376:11 2.23713
13 *376:15 *848:C 1.40002
14 *376:15 *376:12 1.40002
15 *376:14 *376:15 0.193047
*END

*D_NET *377 0.00223457

*CONN
*I *828:A I *C 28.855 53.505 *L 0.00178 *D DLY1X1
*I *859:Q O *C 33.495 39.875 *L 0 *D DFFHQX1
*I *848:D I *C 29.145 50.895 *L 0.00283 *D NOR4X1

*CAP
1 *828:A 3.68e-05
2 *859:Q 3.68e-05
3 *848:D 3.68e-05
4 *377:3 9.77086e-05
5 *377:4 5.6041e-05
6 *377:5 0.00037618
7 *377:6 0.000375009
8 *377:7 0.000121783
9 *377:8 0.000121783
10 *377:9 6.54204e-05
11 *377:10 6.66201e-05
12 *377:11 0.000147929
13 *377:12 7.29285e-05
14 *377:13 7.17919e-05
15 *377:14 4.0468e-05
16 *377:15 0.000147929
17 *377:16 7.042e-05
18 *377:15 *79:10 0.00014608
19 *377:11 *79:11 0.000146080002

*RES
1 *377:16 *859:Q 1.40001
2 *377:13 *377:16 0.372851
3 *377:13 *377:14 0.248568
4 *377:8 *377:14 0.124284
5 *377:8 *377:7 1.36715
6 *377:7 *377:6 0.124284
7 *377:6 *377:5 2.1128571
8 *377:15 *377:5 1.40001
9 *377:11 *377:15 1.49144
10 *377:4 *377:11 1.40001
11 *377:3 *848:D 1.40001
12 *377:4 *377:3 0.497135
13 *377:10 *828:A 1.40001
14 *377:3 *377:12 0.621419
15 *377:9 *377:10 0.497135
16 *377:9 *377:12 0.124284
*END

*D_NET *378 0.0028644

*CONN
*I *812:A I *C 16.385 61.335 *L 0.00172 *D CLKBUFX2
*I *858:Q O *C 20.735 59.305 *L 0 *D DFFQX1
*I *849:A I *C 33.205 55.825 *L 0.00162 *D NOR2XL

*CAP
1 *812:A 3.67986e-05
2 *858:Q 3.67986e-05
3 *849:A 3.67986e-05
4 *378:3 0.000109303
5 *378:4 0.000110501
6 *378:5 0.000394239
7 *378:6 0.000393362
8 *378:7 0.000270124
9 *378:8 0.00040463
10 *378:9 0.00016744
11 *378:10 3.89843e-05
12 *378:11 3.77803e-05
13 *378:13 6.01188e-05
14 *378:14 6.01188e-05
15 *378:15 3.24519e-05
16 *378:7 *30:10 8.45e-06
17 *378:8 *30:11 8.45e-06
18 *378:8 *30:10 6.209e-05
19 *378:9 *30:11 6.209e-05
20 *378:8 *30:11 4.23e-06
21 *378:9 *30:6 4.23e-06
22 *378:14 *30:12 2.489e-05
23 *378:13 *30:13 2.489e-05
24 *378:14 *30:14 5.62e-06
25 *378:13 *30:15 5.6199959e-06
26 *378:5 *427:6 1.25e-05
27 *378:6 *427:7 1.25e-05
28 *378:5 *427:7 0.00012127
29 *378:6 *427:8 0.00012127
30 *378:10 *427:4 1.21e-05
31 *378:11 *427:5 1.20999987e-05
32 *378:3 *379:11 2.512e-05
33 *378:4 *379:10 2.512e-05
34 *378:3 *379:10 6.121e-05
35 *378:4 *379:9 6.12100027e-05

*RES
1 *378:4 *849:A 1.39999
2 *378:4 *378:3 1.11857
3 *378:11 *378:3 0.124301
4 *378:11 *378:10 0.248556
5 *378:14 *812:A 1.39999
6 *378:5 *378:10 1.39999
7 *378:13 *378:14 0.870015
8 *378:6 *378:5 2.98285723
9 *378:9 *378:13 1.39999
10 *378:6 *378:7 0.124301
11 *378:9 *378:8 1.86429
12 *378:8 *378:7 2.23714
13 *378:15 *378:8 1.39999
14 *378:15 *858:Q 1.39999
15 *378:12 *378:15 0.193074
*END

*D_NET *379 0.0019881

*CONN
*I *818:A I *C 38.135 56.115 *L 0.00172 *D CLKBUFX2
*I *851:Q O *C 32.335 64.525 *L 0 *D DFFQX1
*I *849:B I *C 32.915 56.115 *L 0.00171 *D NOR2XL

*CAP
1 *818:A 3.67999e-05
2 *851:Q 3.67999e-05
3 *849:B 3.67999e-05
4 *379:3 6.9231e-05
5 *379:4 6.9231e-05
6 *379:5 0.00015429
7 *379:6 0.000168720059
8 *379:7 0.000136521
9 *379:8 0.000136521
10 *379:9 5.23783e-05
11 *379:10 5.41804e-05
12 *379:11 4.8689e-05
13 *379:7 *490:2 8.196e-05
14 *379:8 *490:3 8.19599973e-05
15 *379:7 *9:10 9.714e-05
16 *379:8 *9:11 9.714e-05
17 *379:7 *9:8 4.549e-05
18 *379:8 *9:9 4.54899991e-05
19 *379:11 *378:3 2.512e-05
20 *379:10 *378:4 2.512e-05
21 *379:10 *378:3 6.121e-05
22 *379:9 *378:4 6.12100027e-05
23 *379:5 *427:4 8.595e-05
24 *379:6 *427:5 8.59500004e-05
25 *379:10 *94:4 1.168e-05
26 *379:9 *94:5 1.168e-05
27 *379:5 *94:4 8.542e-05
28 *379:6 *94:5 8.54200026e-05

*RES
1 *379:4 *818:A 1.39999
2 *379:4 *379:3 0.621413
3 *379:7 *379:3 1.39999
4 *379:9 *849:B 1.39999
5 *379:8 *379:7 2.2371428
6 *379:9 *379:10 0.621413
7 *379:10 *379:8 1.39999
8 *379:10 *379:11 0.248579
9 *379:5 *851:Q 1.39999
10 *379:6 *379:11 0.248579
11 *379:6 *379:5 2.11285
*END

*D_NET *380 0.00351002

*CONN
*I *825:A I *C 6.815 53.505 *L 0.00178 *D DLY1X1
*I *856:Q O *C 32.335 50.315 *L 0 *D DFFQX1
*I *842:C I *C 34.945 56.115 *L 0.00272 *D NOR4BX1

*CAP
1 *825:A 3.67999e-05
2 *856:Q 3.67999e-05
3 *842:C 3.67999e-05
4 *380:3 0.000400287
5 *380:4 0.000400287
6 *380:5 0.00049612875
7 *380:6 0.000398243
8 *380:7 0.000212336
9 *380:8 0.000212336
10 *380:9 0.000307852
11 *380:10 0.000308526
12 *380:12 7.88688e-05
13 *380:13 7.88688e-05
14 *380:14 0.000106478
15 *380:15 0.000106478
16 *380:16 6.47197e-05
17 *380:17 6.47197e-05
18 *380:18 3.24469e-05
19 *380:19 0.000131022

*RES
1 *380:13 *825:A 1.39997
2 *380:12 *380:13 0.621429
3 *380:10 *380:12 1.39997
4 *380:10 *380:9 2.85857
5 *380:14 *380:9 0.124286
6 *380:14 *380:15 0.994286
7 *380:15 *380:16 0.124286
8 *380:16 *380:17 0.497143
9 *380:4 *380:17 0.124286
10 *380:7 *842:C 1.39997
11 *380:4 *380:3 3.97714281
12 *380:8 *380:7 1.98857
13 *380:6 *380:3 0.124286
14 *380:19 *380:8 1.39997
15 *380:6 *380:5 2.61
16 *380:5 *380:19 1.11857
17 *380:18 *380:5 1.39997
18 *380:18 *856:Q 1.39997
19 *380:11 *380:18 0.193043
*END

*D_NET *381 0.00262221

*CONN
*I *837:A I *C 49.155 47.995 *L 0.00172 *D DLY3X1
*I *855:Q O *C 44.225 50.315 *L 0 *D DFFQX1
*I *845:A I *C 52.925 55.825 *L 0.00273 *D NOR4X1

*CAP
1 *837:A 3.68013e-05
2 *855:Q 3.68013e-05
3 *845:A 3.68013e-05
4 *381:3 0.0002009
5 *381:4 0.000190337
6 *381:5 4.44818e-05
7 *381:6 4.44818e-05
8 *381:7 0.000163458
9 *381:8 0.000163458
10 *381:9 9.24694e-05
11 *381:10 4.36926e-05
12 *381:11 9.23035e-05
13 *381:12 4.35096e-05
14 *381:13 0.00037479
15 *381:14 4.4356e-05
16 *381:15 0.00037479
17 *381:14 *38:10 3.685e-05
18 *381:12 *38:11 3.685e-05
19 *381:10 *38:10 3.677e-05
20 *381:3 *38:11 3.677e-05
21 *381:3 *38:10 0.00020941
22 *381:4 *38:11 0.00020941
23 *381:11 *38:10 3.636e-05
24 *381:9 *38:11 3.63599844e-05

*RES
1 *381:15 *845:A 1.40001
2 *381:13 *381:15 3.10714293
3 *381:14 *381:13 1.40001
4 *381:12 *381:14 0.372842
5 *381:11 *381:12 0.124265
6 *381:6 *837:A 1.40001
7 *381:9 *381:11 0.994308
8 *381:6 *381:5 0.248577
9 *381:9 *381:10 0.124265
10 *381:3 *381:5 1.40001
11 *381:3 *381:10 0.372842
12 *381:4 *381:3 2.11283
13 *381:8 *855:Q 1.40001
14 *381:7 *381:4 1.40001
15 *381:7 *381:8 0.745731
*END

*D_NET *382 0.0072951

*CONN
*I *831:A I *C 62.495 6.235 *L 0.00172 *D DLY3X1
*I *854:Q O *C 58.725 64.525 *L 0 *D DFFQX1
*I *845:B I *C 53.505 56.115 *L 0.00273 *D NOR4X1

*CAP
1 *831:A 3.68043e-05
2 *854:Q 3.68043e-05
3 *845:B 3.68043e-05
4 *382:3 0.000103946
5 *382:4 0.000149641
6 *382:5 0.000188378
7 *382:6 0.000141498
8 *382:7 0.000151886
9 *382:8 0.000153093
10 *382:9 0.000181453
11 *382:10 0.000181453
12 *382:11 5.68094e-05
13 *382:12 5.68094e-05
14 *382:13 6.62702e-05
15 *382:14 0.000317143
16 *382:15 0.000283801
17 *382:16 0.000278775
18 *382:17 0.000278775
19 *382:18 0.00073201
20 *382:19 0.00073201
21 *382:20 0.000366725
22 *382:21 0.000366725
23 *382:23 4.106e-05
24 *382:24 0.00015173
25 *382:25 0.000150848
26 *382:26 6.79903e-05
27 *382:27 6.88727e-05
28 *382:28 3.24481e-05
29 *382:20 *132:15 0.00019828
30 *382:21 *132:16 0.00019828
31 *382:16 *132:15 7.472e-05
32 *382:17 *132:16 7.472e-05
33 *382:18 *132:15 0.00021059
34 *382:19 *132:16 0.000210589984
35 *382:20 *72:9 0.00017375
36 *382:21 *72:10 0.000173750001
37 *382:16 *385:23 6.666e-05
38 *382:17 *385:22 6.666e-05
39 *382:18 *385:14 0.00021826
40 *382:19 *385:15 0.000218259995

*RES
1 *382:3 *854:Q 1.40001
2 *382:4 *382:3 0.497135
3 *382:12 *845:B 1.40001
4 *382:5 *382:4 0.497135
5 *382:12 *382:11 0.497135
6 *382:6 *382:5 1.24284
7 *382:23 *382:11 1.40001
8 *382:6 *382:7 0.124284
9 *382:23 *382:15 0.124284
10 *382:8 *382:7 0.745703
11 *382:15 *382:14 1.86426
12 *382:14 *382:8 1.40001
13 *382:14 *382:13 0.372851
14 *382:27 *382:13 1.40001
15 *382:26 *382:27 0.497135
16 *382:16 *382:26 0.124284
17 *382:17 *382:16 3.8528
18 *382:17 *382:20 0.124284
19 *382:21 *382:20 5.71722
20 *382:18 *382:21 0.124284
21 *382:19 *382:18 10.5642853
22 *382:19 *382:25 0.124284
23 *382:24 *382:25 1.36712
24 *382:10 *382:24 1.40001
25 *382:10 *382:9 1.61569
26 *382:28 *831:A 1.40001
27 *382:28 *382:9 1.40001
28 *382:22 *382:28 0.193115
*END

*D_NET *383 0.00590296

*CONN
*I *833:A I *C 54.665 6.235 *L 0.00172 *D DLY3X1
*I *853:Q O *C 52.345 64.525 *L 0 *D DFFHQX1
*I *845:C I *C 54.085 56.115 *L 0.00274 *D NOR4X1

*CAP
1 *833:A 3.68045e-05
2 *853:Q 3.68045e-05
3 *845:C 3.68045e-05
4 *383:3 4.16519e-05
5 *383:4 4.16519e-05
6 *383:5 4.02976e-05
7 *383:6 4.02976e-05
8 *383:7 0.000151686
9 *383:8 0.000151686
10 *383:9 0.000650622
11 *383:10 0.000666379
12 *383:11 0.000828544
13 *383:12 0.00082943
14 *383:13 4.85242e-05
15 *383:14 4.93975e-05
16 *383:15 7.85323e-05
17 *383:16 7.85323e-05
18 *383:20 0.000162595
19 *383:21 3.3805e-05
20 *383:22 0.000163469
21 *383:23 3.24507e-05
22 *383:24 0.000251898
23 *383:25 0.000251898
24 *383:26 3.24507e-05
25 *383:27 0.000197134
26 *383:28 0.000213765
27 *383:9 *131:20 2.496e-05
28 *383:10 *131:19 2.496e-05
29 *383:9 *131:10 0.00012605
30 *383:10 *131:11 0.00012605
31 *383:11 *131:10 0.00020264
32 *383:12 *131:11 0.00020264
33 *383:13 *131:20 7.11e-06
34 *383:14 *131:19 7.11e-06
35 *383:15 *131:18 7.44e-06
36 *383:16 *131:16 7.44e-06
37 *383:5 *131:23 9.73e-06
38 *383:6 *131:15 9.7299953e-06

*RES
1 *383:26 *833:A 1.40006
2 *383:19 *383:26 0.193117
3 *383:5 *383:26 1.40006
4 *383:6 *383:5 0.248551
5 *383:12 *383:6 1.40006
6 *383:12 *383:11 9.81857109
7 *383:11 *383:24 0.12435
8 *383:24 *383:25 2.2371
9 *383:25 *383:27 0.12435
10 *383:27 *383:28 1.74
11 *383:10 *383:28 0.248551
12 *383:23 *845:C 1.40006
13 *383:18 *383:23 0.193117
14 *383:10 *383:9 7.58147
15 *383:7 *383:23 1.40006
16 *383:7 *383:9 1.40006
17 *383:8 *383:7 0.745652
18 *383:14 *383:8 1.40006
19 *383:14 *383:13 0.372901
20 *383:16 *383:13 0.12435
21 *383:16 *383:15 0.994352
22 *383:15 *383:20 0.12435
23 *383:3 *853:Q 1.40006
24 *383:20 *383:22 1.49145
25 *383:4 *383:3 0.248551
26 *383:21 *383:22 1.40006
27 *383:21 *383:4 1.40006
28 *383:17 *383:21 0.193117
*END

*D_NET *384 0.00150531

*CONN
*I *811:A I *C 60.755 58.725 *L 0.00172 *D CLKBUFX2
*I *852:Q O *C 61.625 59.305 *L 0 *D DFFQX1
*I *845:D I *C 54.375 56.115 *L 0.00283 *D NOR4X1

*CAP
1 *811:A 3.67988e-05
2 *852:Q 3.67988e-05
3 *845:D 3.67988e-05
4 *384:3 8.00681e-05
5 *384:4 8.00681e-05
6 *384:5 0.00036841
7 *384:6 0.000346413
8 *384:7 0.00014484
9 *384:8 0.00014484
10 *384:9 8.723e-05
11 *384:10 5.5811e-05
12 *384:11 8.723e-05

*RES
1 *384:11 *852:Q 1.40002
2 *384:8 *811:A 1.40002
3 *384:9 *384:11 0.372869
4 *384:7 *384:8 0.745695
5 *384:10 *384:9 1.40002
6 *384:5 *384:7 1.40002
7 *384:5 *384:10 0.372869
8 *384:6 *384:5 2.73428583
9 *384:3 *384:6 1.40002
10 *384:4 *384:3 0.372869
11 *845:D *384:4 1.40002
*END

*D_NET *385 0.00505893

*CONN
*I *834:A I *C 57.565 9.425 *L 0.00172 *D DLY3X1
*I *857:Q O *C 56.695 54.085 *L 0 *D DFFQX1
*I *841:AN I *C 52.055 56.115 *L 0.0018 *D NAND4BXL

*CAP
1 *834:A 3.67959e-05
2 *857:Q 3.67959e-05
3 *841:AN 3.67959e-05
4 *385:3 7.99911e-05
5 *385:4 7.99911e-05
6 *385:5 0.000124466
7 *385:6 0.000124466
8 *385:7 6.03898e-05
9 *385:8 8.60843e-05
10 *385:9 5.11943e-05
11 *385:10 5.20846e-05
12 *385:11 5.86509e-05
13 *385:12 0.000476789
14 *385:13 0.000476789
15 *385:14 0.000910814
16 *385:15 0.00091169
17 *385:18 3.97869e-05
18 *385:19 3.97869e-05
19 *385:20 3.24555e-05
20 *385:21 3.38049e-05
21 *385:22 0.000276477
22 *385:23 0.000277354
23 *385:23 *382:16 6.666e-05
24 *385:22 *382:17 6.666e-05
25 *385:14 *382:18 0.00021826
26 *385:15 *382:19 0.000218259995
27 *385:12 *72:9 9.283e-05
28 *385:13 *72:10 9.28300004e-05

*RES
1 *385:3 *841:AN 1.4
2 *385:4 *385:3 0.621391
3 *385:10 *385:4 1.4
4 *385:10 *385:9 0.497112
5 *385:6 *385:9 0.124278
6 *385:6 *385:5 1.1185
7 *385:18 *857:Q 1.4
8 *385:5 *385:11 0.124278
9 *385:18 *385:19 0.248556
10 *385:11 *385:8 0.372834
11 *385:8 *385:19 1.4
12 *385:8 *385:7 0.372834
13 *385:23 *385:7 1.4
14 *385:22 *385:23 3.23139
15 *385:12 *385:22 0.124278
16 *385:13 *385:12 5.46856
17 *385:13 *385:14 0.124278
18 *385:15 *385:14 10.688571
19 *385:17 *385:21 0.193104
20 *385:21 *385:15 1.4
21 *385:20 *834:A 1.4
22 *385:20 *385:21 1.4
23 *385:16 *385:20 0.193104
*END

*D_NET *386 0.00305756

*CONN
*I *810:A I *C 66.845 56.115 *L 0.00172 *D CLKBUFX2
*I *876:Q O *C 45.965 64.525 *L 0 *D DFFQX1

*CAP
1 *810:A 3.67979e-05
2 *876:Q 3.67979e-05
3 *386:2 0.000210198
4 *386:3 0.000240259
5 *386:4 8.02698e-05
6 *386:5 5.02087e-05
7 *386:6 0.00011929
8 *386:7 0.000119966
9 *386:8 8.64423e-05
10 *386:9 8.64423e-05
11 *386:10 0.000171025
12 *386:11 0.000171025
13 *386:12 0.00045656
14 *386:13 0.000286671
15 *386:14 0.000456358
16 *386:15 0.000286671
17 *386:16 8.08481e-05
18 *386:17 8.17259e-05

*RES
1 *386:5 *810:A 1.4
2 *386:5 *386:4 0.372872
3 *386:3 *386:4 0.372872
4 *386:3 *386:2 2.11287
5 *386:17 *386:2 1.4
6 *386:16 *386:17 0.372872
7 *386:15 *386:16 0.124308
8 *386:13 *386:15 2.48569
9 *386:13 *386:14 0.124308
10 *386:12 *386:14 3.48000002
11 *386:11 *386:12 0.124308
12 *386:10 *386:11 1.49144
13 *386:10 *386:6 0.124308
14 *386:7 *386:6 0.745692
15 *386:9 *876:Q 1.4
16 *386:8 *386:7 1.4
17 *386:8 *386:9 0.497128
*END

*D_NET *387 0.00575962

*CONN
*I *832:A I *C 13.485 37.555 *L 0.00172 *D DLY3X1
*I *875:Q O *C 46.255 64.525 *L 0 *D DFFQX1

*CAP
1 *832:A 3.67922e-05
2 *875:Q 3.67922e-05
3 *387:2 0.000178303
4 *387:3 0.000178303
5 *387:4 0.000141163
6 *387:5 0.000141163
7 *387:6 4.68121e-05
8 *387:7 4.61325e-05
9 *387:8 0.000784759
10 *387:9 0.000785438
11 *387:10 4.49314e-05
12 *387:11 4.42518e-05
13 *387:13 4.45363e-05
14 *387:14 4.38567e-05
15 *387:15 0.00103573
16 *387:16 0.00103573
17 *387:17 3.24461e-05
18 *387:10 *30:21 1.459e-05
19 *387:11 *30:20 1.459e-05
20 *387:8 *30:21 0.00022038
21 *387:9 *30:20 0.000220380003
22 *387:8 *493:121 6.755e-05
23 *387:9 *493:122 6.755e-05
24 *387:8 *493:125 3.147e-05
25 *387:9 *493:126 3.147e-05
26 *387:8 *493:117 2.568e-05
27 *387:9 *493:118 2.568e-05
28 *387:8 *493:118 1.998e-05
29 *387:9 *493:119 1.998e-05
30 *387:8 *493:127 8.56e-06
31 *387:9 *493:128 8.56e-06
32 *387:8 *493:129 8.56e-06
33 *387:9 *493:130 8.56e-06
34 *387:8 *493:130 1.006e-05
35 *387:9 *493:131 1.00600025e-05
36 *387:6 *95:12 3.751e-05
37 *387:7 *95:13 3.751e-05
38 *387:14 *95:12 3.572e-05
39 *387:13 *95:13 3.572e-05
40 *387:2 *95:12 7.117e-05
41 *387:3 *95:13 7.11700032e-05

*RES
1 *387:5 *832:A 1.40002
2 *387:5 *387:4 1.11865
3 *387:13 *387:4 1.40002
4 *387:13 *387:14 0.372827
5 *387:3 *387:14 0.124331
6 *387:3 *387:2 1.98863
7 *387:2 *387:7 0.124331
8 *387:7 *387:6 0.372827
9 *387:15 *387:6 1.40002
10 *387:15 *387:16 10.3157
11 *387:9 *387:16 1.40002
12 *387:9 *387:8 10.9371433
13 *387:8 *387:11 0.124331
14 *387:11 *387:10 0.372827
15 *387:17 *387:10 1.40002
16 *387:17 *875:Q 1.40002
17 *387:12 *387:17 0.193089
*END

*D_NET *388 0.00367501

*CONN
*I *835:A I *C 44.805 25.085 *L 0.00172 *D DLY3X1
*I *868:Q O *C 49.735 50.315 *L 0 *D DFFQX1

*CAP
1 *835:A 3.68055e-05
2 *868:Q 3.68055e-05
3 *388:2 0.00050377
4 *388:3 0.000502602
5 *388:4 0.000108218
6 *388:5 0.000108218
7 *388:6 5.82985e-05
8 *388:7 5.71301e-05
9 *388:8 0.00020034
10 *388:9 0.000199663
11 *388:10 7.07361e-05
12 *388:11 0.000121909
13 *388:12 7.14203e-05
14 *388:13 0.000121909
15 *388:2 *139:190 5.624e-05
16 *388:3 *139:172 5.624e-05
17 *388:2 *139:172 3.603e-05
18 *388:3 *139:173 3.603e-05
19 *388:2 *139:221 8.747e-05
20 *388:3 *139:222 8.747e-05
21 *388:2 *139:222 9.844e-05
22 *388:3 *139:223 9.844e-05
23 *388:5 *139:207 1.793e-05
24 *388:4 *139:208 1.79300007e-05
25 *388:2 *28:13 0.00035676
26 *388:3 *28:12 0.000356760008
27 *388:2 *189:13 2.512e-05
28 *388:3 *189:4 2.512e-05
29 *388:2 *189:4 6.06e-05
30 *388:3 *189:5 6.06000007e-05

*RES
1 *388:13 *868:Q 1.40002
2 *388:11 *388:13 1.11854
3 *388:12 *388:11 1.40002
4 *388:10 *388:12 0.621396
5 *388:9 *388:10 0.124255
6 *388:8 *388:9 1.49142
7 *388:2 *388:8 1.40002
8 *388:6 *835:A 1.40002
9 *388:3 *388:2 7.82999992
10 *388:6 *388:7 0.372886
11 *388:5 *388:3 0.124255
12 *388:4 *388:7 0.124255
13 *388:4 *388:5 1.36717
*END

*D_NET *389 0.00653482

*CONN
*I *836:A I *C 51.475 6.525 *L 0.00175 *D DLY4X1
*I *863:Q O *C 36.685 48.865 *L 0 *D DFFQX1
*I *842:B I *C 34.365 56.115 *L 0.00267 *D NOR4BX1

*CAP
1 *836:A 3.68107e-05
2 *863:Q 3.68107e-05
3 *842:B 3.68107e-05
4 *389:3 0.000180645
5 *389:4 0.000180645
6 *389:5 0.000317232
7 *389:6 0.000333406
8 *389:7 6.05307e-05
9 *389:8 4.43567e-05
10 *389:9 0.000215076
11 *389:10 0.000215076
12 *389:11 0.000204933
13 *389:12 5.92054e-05
14 *389:13 0.000178184
15 *389:14 0.000145295
16 *389:15 0.000145295
17 *389:18 0.00177251
18 *389:19 3.38085e-05
19 *389:20 0.00177251
20 *389:21 3.24561e-05
21 *389:5 *198:10 0.00010819
22 *389:6 *198:8 0.00010819
23 *389:5 *198:7 7.428e-05
24 *389:6 *198:5 7.428e-05
25 *389:7 *198:7 3.677e-05
26 *389:8 *198:5 3.677e-05
27 *389:9 *198:7 4.736e-05
28 *389:10 *198:5 4.73600084e-05

*RES
1 *389:21 *836:A 1.39989
2 *389:17 *389:21 0.193089
3 *389:5 *389:21 1.39989
4 *389:6 *389:5 3.72862
5 *389:3 *842:B 1.39989
6 *389:9 *389:6 0.248683
7 *389:4 *389:3 1.36708
8 *389:10 *389:9 2.23707
9 *389:15 *389:4 1.39989
10 *389:10 *389:7 0.248683
11 *389:15 *389:14 0.994191
12 *389:8 *389:7 0.372889
13 *389:13 *389:14 1.39989
14 *389:18 *389:8 1.39989
15 *389:11 *389:13 1.73997
16 *389:11 *863:Q 1.39989
17 *389:18 *389:20 17.7728577
18 *389:12 *389:11 0.372889
19 *389:19 *389:20 1.39989
20 *389:19 *389:12 1.39989
21 *389:16 *389:19 0.193089
*END

*D_NET *390 0.0005678

*CONN
*I *969:A0 I *C 18.07 50.5925 *L 0.00263 *D AOI211X1
*I *967:Y O *C 17.3375 50.605 *L 0 *D CLKINVX1
*I *932:A I *C 20.735 50.605 *L 0.00162 *D NOR2XL

*CAP
1 *969:A0 6.64791e-05
2 *967:Y 3.91993e-05
3 *932:A 3.68e-05
4 *390:3 9.682e-05
5 *390:4 9.682e-05
6 *390:7 3.24506e-05
7 *390:8 3.24506e-05
8 *390:3 *410:10 8.339e-05
9 *390:4 *410:11 8.33900024e-05

*RES
1 *390:8 *932:A 1.39999998
2 *390:6 *390:8 0.193051
3 *390:3 *390:8 1.39999998
4 *390:4 *390:3 1.11857
5 *967:Y *969:A0 0.580008
6 *390:7 *390:4 1.39999998
7 *390:7 *969:A0 1.39999998
8 *390:5 *390:7 0.193051
*END

*D_NET *391 0.00261636

*CONN
*I *797:A I *C 56.115 56.115 *L 0.00172 *D CLKBUFX2
*I *966:Y O *C 39.3775 56.115 *L 0 *D INVXL

*CAP
1 *797:A 3.68011e-05
2 *966:Y 3.68011e-05
3 *391:2 3.01695e-05
4 *391:3 3.01695e-05
5 *391:4 0.00069204
6 *391:5 0.000691364
7 *391:6 0.000503357
8 *391:7 0.000504032
9 *391:9 4.58192e-05
10 *391:10 4.58192e-05

*RES
1 *391:9 *966:Y 1.4
2 *391:9 *391:10 0.248577
3 *391:7 *391:10 1.4
4 *391:7 *391:6 2.8586
5 *391:5 *391:6 0.124255
6 *391:5 *391:4 4.3499999
7 *391:2 *391:4 1.4
8 *391:3 *797:A 1.4
9 *391:3 *391:2 0.124255
10 *391:8 *391:3 0.0643181
*END

*D_NET *392 0.00053568

*CONN
*I *965:Y O *C 30.595 50.315 *L 0 *D NAND2XL
*I *956:A I *C 31.175 50.605 *L 0.00162 *D NOR2XL
*I *940:B I *C 29.435 48.575 *L 0.0028 *D NOR2BX1

*CAP
1 *965:Y 4.96209e-05
2 *956:A 1.28194e-05
3 *940:B 3.67989e-05
4 *392:3 9.72414e-05
5 *392:4 5.14304e-05
6 *392:5 0.00016679
7 *392:6 0.000120979

*RES
1 *965:Y *956:A 0.193329
2 *392:6 *965:Y 1.39999998
3 *392:5 *392:6 0.621429
4 *392:3 *392:5 0.497144
5 *392:4 *392:3 0.248572
6 *940:B *392:4 1.39999998
*END

*D_NET *393 0.00273077

*CONN
*I *964:Y O *C 44.805 50.315 *L 0 *D AND2X1
*I *961:B0 I *C 48.865 51.185 *L 0.00276 *D AOI2BB1X1
*I *958:C I *C 51.765 59.015 *L 0.00168 *D NAND3XL
*I *955:B I *C 46.545 50.895 *L 0.00167 *D NAND2XL
*I *953:A1 I *C 48.285 61.335 *L 0.00162 *D OA21XL

*CAP
1 *964:Y 3.68008e-05
2 *961:B0 3.68008e-05
3 *958:C 3.68008e-05
4 *955:B 3.68008e-05
5 *953:A1 3.68008e-05
6 *393:5 0.000560739258
7 *393:6 0.000554134
8 *393:7 0.000107391
9 *393:8 8.31675e-05
10 *393:9 5.8029e-05
11 *393:10 0.000245772
12 *393:11 0.000245772
13 *393:14 3.24542e-05
14 *393:15 4.35261e-05
15 *393:16 4.35261e-05
16 *393:17 6.30687e-05
17 *393:18 6.42666e-05
18 *393:19 8.04638e-05
19 *393:20 0.000100332
20 *393:21 3.91024e-05
21 *393:22 3.24542e-05
22 *393:7 *79:15 6.071e-05
23 *393:8 *79:13 6.071e-05
24 *393:9 *79:6 3.135e-05
25 *393:7 *79:7 3.135e-05
26 *393:7 *79:6 4.23e-06
27 *393:8 *79:7 4.23000099e-06

*RES
1 *393:22 *958:C 1.40002
2 *393:13 *393:22 0.19304
3 *393:18 *953:A1 1.40002
4 *393:10 *393:22 1.40002
5 *393:17 *393:18 0.497141
6 *393:11 *393:10 1.36715
7 *393:17 *393:20 0.124272
8 *393:21 *961:B0 1.40002
9 *393:5 *393:11 1.40002
10 *393:5 *393:20 0.497141
11 *393:6 *393:21 0.124272
12 *393:6 *393:5 3.35571432
13 *393:16 *955:B 1.40002
14 *393:19 *393:6 0.372869
15 *393:15 *393:16 0.248596
16 *393:9 *393:19 1.40002
17 *393:7 *393:15 1.40002
18 *393:7 *393:9 0.870009
19 *393:8 *393:7 0.745737
20 *393:14 *393:8 1.40002
21 *393:14 *964:Y 1.40002
22 *393:12 *393:14 0.19304
*END

*D_NET *394 0.00121434

*CONN
*I *963:Y O *C 17.255 59.305 *L 0 *D NAND2XL
*I *954:A I *C 23.345 55.825 *L 0.00162 *D NOR2XL
*I *929:B I *C 21.895 56.115 *L 0.00538 *D NOR2BX2

*CAP
1 *963:Y 3.67996e-05
2 *954:A 3.67996e-05
3 *929:B 3.67996e-05
4 *394:3 4.57392e-05
5 *394:4 4.57392e-05
6 *394:5 0.00019607
7 *394:6 0.000156859
8 *394:7 7.21392e-05
9 *394:9 0.000108011
10 *394:10 4.77706e-05
11 *394:11 0.000108011
12 *394:12 4.6891e-05
13 *394:13 3.24495e-05
14 *394:7 *462:2 6.136e-05
15 *394:5 *462:3 6.136e-05
16 *394:5 *462:2 6.077e-05
17 *394:6 *462:3 6.07700042e-05

*RES
1 *394:11 *963:Y 1.39999
2 *394:9 *394:11 0.745705
3 *394:10 *394:9 1.39999
4 *394:4 *954:A 1.39999
5 *394:10 *394:12 0.24856
6 *394:4 *394:3 0.24856
7 *394:6 *394:12 0.12428
8 *394:7 *394:3 1.39999
9 *394:6 *394:5 1.61571431
10 *394:5 *394:7 0.621425
11 *394:13 *929:B 1.39999
12 *394:13 *394:5 1.39999
13 *394:8 *394:13 0.193064
*END

*D_NET *395 0.00123451

*CONN
*I *962:Y O *C 54.375 54.085 *L 0 *D NAND2XL
*I *952:C I *C 54.085 58.435 *L 0.00172 *D NOR4BBXL
*I *951:A I *C 55.825 59.015 *L 0.00162 *D NOR2XL

*CAP
1 *962:Y 3.67996e-05
2 *952:C 3.67996e-05
3 *951:A 3.67996e-05
4 *395:3 6.53501e-05
5 *395:4 7.97798e-05
6 *395:5 0.000367618
7 *395:6 0.00041331
8 *395:7 4.50929e-05
9 *395:8 4.50929e-05
10 *395:9 4.67201e-05
11 *395:10 6.11498e-05

*RES
1 *395:9 *951:A 1.40001
2 *395:9 *395:10 0.248588
3 *395:8 *395:10 0.248588
4 *395:5 *962:Y 1.40001
5 *395:7 *395:8 0.124276
6 *395:5 *395:6 2.3614285
7 *395:6 *395:7 0.248588
8 *395:4 *395:6 0.248588
9 *395:3 *395:4 0.372865
10 *952:C *395:3 1.40001
*END

*D_NET *396 0.000883159

*CONN
*I *960:Y O *C 32.915 54.085 *L 0 *D NAND4XL
*I *956:B I *C 31.465 50.895 *L 0.00171 *D NOR2XL
*I *947:B I *C 32.335 48.575 *L 0.00175 *D NOR2BXL

*CAP
1 *960:Y 3.67999e-05
2 *956:B 3.67999e-05
3 *947:B 3.67999e-05
4 *396:3 5.97502e-05
5 *396:4 6.87804e-05
6 *396:5 0.000117299
7 *396:6 5.85608e-05
8 *396:7 7.42218e-05
9 *396:8 7.89887e-05
10 *396:9 7.78198e-05
11 *396:10 0.00014933
12 *396:11 8.80098e-05

*RES
1 *396:8 *947:B 1.39999998
2 *396:11 *960:Y 1.39999998
3 *396:8 *396:9 0.372858
4 *396:10 *396:11 0.745715
5 *396:6 *396:9 0.124286
6 *396:5 *396:10 0.621429
7 *396:6 *396:7 0.497144
8 *396:4 *956:B 1.39999998
9 *396:4 *396:5 0.621429
10 *396:3 *396:7 0.248572
11 *396:3 *396:4 0.248572
*END

*D_NET *397 0.00126454

*CONN
*I *959:Y O *C 17.835 54.085 *L 0 *D NAND4XL
*I *954:B I *C 23.635 56.115 *L 0.00171 *D NOR2XL
*I *935:A I *C 21.025 53.795 *L 0.00162 *D NOR2XL

*CAP
1 *959:Y 3.68013e-05
2 *954:B 3.68013e-05
3 *935:A 3.68013e-05
4 *397:3 8.96108e-05
5 *397:4 0.000213457
6 *397:5 3.06498e-05
7 *397:6 3.06498e-05
8 *397:7 0.000261099277
9 *397:8 0.000261099277
10 *397:11 7.18616e-05
11 *397:12 0.000195712

*RES
1 *397:3 *954:B 1.39999998
2 *397:4 *397:3 0.372858
3 *397:12 *397:4 1.11857
4 *397:11 *935:A 1.39999998
5 *397:10 *397:11 0.193051
6 *397:11 *397:12 0.621429
7 *397:7 *397:11 1.39999998
8 *397:8 *397:7 1.36714
9 *397:6 *397:8 1.39999998
10 *397:6 *397:5 0.124286
11 *397:5 *959:Y 1.39999998
12 *397:9 *397:5 0.18284
*END

*D_NET *398 0.000602549

*CONN
*I *957:Y O *C 57.565 59.305 *L 0 *D CLKINVX3
*I *950:B I *C 57.565 56.115 *L 0.00167 *D NAND2XL
*I *948:A1 I *C 58.725 56.115 *L 0.00162 *D OA21X1

*CAP
1 *957:Y 3.68004e-05
2 *950:B 3.68004e-05
3 *948:A1 3.68004e-05
4 *398:3 4.25694e-05
5 *398:4 0.00019133
6 *398:5 0.000119901
7 *398:6 4.63297e-05
8 *398:7 9.202e-05

*RES
1 *398:6 *948:A1 1.39999998
2 *398:6 *398:7 0.248572
3 *398:5 *957:Y 1.39999998
4 *398:4 *398:7 0.497144
5 *398:4 *398:5 0.870001
6 *398:3 *398:4 0.248572
7 *950:B *398:3 1.39999998
*END

*D_NET *399 0.00110241

*CONN
*I *958:Y O *C 52.055 58.435 *L 0 *D NAND3XL
*I *957:A I *C 56.985 59.015 *L 0.00784 *D CLKINVX3
*I *952:D I *C 53.505 58.725 *L 0.00169 *D NOR4BBXL
*I *951:B I *C 56.115 58.725 *L 0.00171 *D NOR2XL

*CAP
1 *958:Y 3.67989e-05
2 *957:A 3.67989e-05
3 *952:D 3.67989e-05
4 *951:B 3.67989e-05
5 *399:4 6.89697e-05
6 *399:5 6.89697e-05
7 *399:6 6.29917e-05
8 *399:7 7.5891e-05
9 *399:8 0.00010669
10 *399:9 0.000161420186
11 *399:10 0.000130141
12 *399:11 4.58188e-05
13 *399:12 0.00010715
14 *399:14 3.10402e-05
15 *399:15 3.10402e-05
16 *399:16 6.50903e-05

*RES
1 *399:11 *958:Y 1.39999998
2 *399:12 *399:11 0.248572
3 *399:12 *399:8 0.621429
4 *399:7 *952:D 1.39999998
5 *399:8 *399:7 0.248572
6 *399:5 *951:B 1.39999998
7 *399:7 *399:6 0.372858
8 *399:5 *399:4 0.248572
9 *399:10 *399:6 1.39999998
10 *399:9 *399:4 1.39999998
11 *399:10 *399:9 1.11857
12 *399:9 *399:16 0.372858
13 *399:15 *399:16 1.39999998
14 *399:14 *957:A 1.39999998
15 *399:14 *399:15 0.124286
16 *399:13 *399:14 0.0643219
*END

*D_NET *400 0.00126194

*CONN
*I *956:Y O *C 31.755 51.185 *L 0 *D NOR2XL
*I *944:C I *C 24.795 50.605 *L 0.00164 *D NAND4XL

*CAP
1 *956:Y 3.67964e-05
2 *944:C 3.67964e-05
3 *400:2 0.000117249
4 *400:3 0.000101083
5 *400:4 0.000444473
6 *400:5 0.00046064
7 *400:8 3.24525e-05
8 *400:9 3.24525e-05

*RES
1 *400:7 *400:9 0.193074
2 *400:9 *956:Y 1.4
3 *400:4 *400:9 1.4
4 *400:5 *400:4 1.98857141
5 *400:2 *400:5 0.248571
6 *400:3 *400:2 0.994286
7 *400:8 *944:C 1.4
8 *400:8 *400:3 1.4
9 *400:6 *400:8 0.193074
*END

*D_NET *401 0.00197861

*CONN
*I *955:Y O *C 46.545 50.315 *L 0 *D NAND2XL
*I *953:B0 I *C 48.865 60.755 *L 0.0017 *D OA21XL
*I *939:B I *C 50.025 58.725 *L 0.00167 *D NAND2XL
*I *938:A1 I *C 45.095 61.335 *L 0.00274 *D OAI21X1

*CAP
1 *955:Y 3.68017e-05
2 *953:B0 3.68017e-05
3 *939:B 3.68017e-05
4 *938:A1 3.68017e-05
5 *401:4 0.000156552
6 *401:5 0.000156552
7 *401:6 6.36001e-05
8 *401:7 6.36001e-05
9 *401:8 0.00013021
10 *401:9 0.000175901
11 *401:10 0.00013232
12 *401:11 0.000178182
13 *401:12 7.96713e-05
14 *401:15 3.38007e-05
15 *401:16 0.00028753
16 *401:17 0.00028753
17 *401:18 8.59585e-05

*RES
1 *401:18 *939:B 1.40002
2 *401:6 *938:A1 1.40002
3 *401:9 *401:18 0.497158
4 *401:7 *401:6 0.248579
5 *401:8 *953:B0 1.40002
6 *401:9 *401:8 0.869985
7 *401:14 *401:8 0.193047
8 *401:12 *401:7 1.40002
9 *401:10 *401:8 1.40002
10 *401:12 *401:11 0.497158
11 *401:11 *401:10 1.11856
12 *401:17 *401:11 1.40002
13 *401:5 *955:Y 1.40002
14 *401:16 *401:17 2.73428583
15 *401:5 *401:4 1.36714
16 *401:15 *401:16 1.40002
17 *401:15 *401:4 1.40002
18 *401:13 *401:15 0.193047
*END

*D_NET *402 0.000505242

*CONN
*I *954:Y O *C 23.925 56.405 *L 0 *D NOR2XL
*I *949:C I *C 22.185 53.795 *L 0.00285 *D NAND3X1

*CAP
1 *954:Y 3.67998e-05
2 *949:C 3.67998e-05
3 *402:2 4.55379e-05
4 *402:3 0.0001225
5 *402:4 0.00017028
6 *402:5 9.33208e-05

*RES
1 *402:5 *954:Y 1.39999998
2 *402:4 *402:5 0.870001
3 *402:3 *402:4 0.745715
4 *402:2 *402:3 0.248572
5 *949:C *402:2 1.39999998
*END

*D_NET *403 0.00567001

*CONN
*I *952:Y O *C 53.795 59.595 *L 0 *D NOR4BBXL
*I *947:AN I *C 32.915 48.285 *L 0.00174 *D NOR2BXL
*I *945:B I *C 46.545 56.115 *L 0.00167 *D NAND2XL
*I *944:D I *C 24.505 50.605 *L 0.00166 *D NAND4XL
*I *942:A1 I *C 44.225 56.115 *L 0.00162 *D OA21XL

*CAP
1 *952:Y 3.68036e-05
2 *947:AN 3.68036e-05
3 *945:B 3.68036e-05
4 *944:D 3.68036e-05
5 *942:A1 3.27997e-05
6 *403:5 8.63363e-05
7 *403:6 8.63363e-05
8 *403:7 7.35706e-05
9 *403:8 7.35706e-05
10 *403:9 7.60813e-05
11 *403:10 7.60813e-05
12 *403:11 9.82381e-05
13 *403:12 9.94093e-05
14 *403:13 0.000253819
15 *403:14 0.000377083
16 *403:15 0.000177152
17 *403:16 0.000177833
18 *403:17 0.000156386
19 *403:18 0.000284306
20 *403:19 0.000286985
21 *403:20 0.00047969875
22 *403:21 0.000149513
23 *403:22 0.000363996
24 *403:24 6.00804e-05
25 *403:25 2.86202e-05
26 *403:26 4.31571e-05
27 *403:27 4.31571e-05
28 *403:22 *9:10 1.25e-05
29 *403:20 *9:11 1.25e-05
30 *403:20 *9:10 9.787e-05
31 *403:21 *9:11 9.787e-05
32 *403:27 *9:4 3.666e-05
33 *403:26 *9:5 3.66600064e-05
34 *403:13 *139:237 9.027e-05
35 *403:14 *139:238 9.027e-05
36 *403:13 *139:238 3.828e-05
37 *403:14 *139:239 3.828e-05
38 *403:13 *139:239 2.738e-05
39 *403:14 *139:240 2.738e-05
40 *403:18 *139:249 2.381e-05
41 *403:19 *139:250 2.381e-05
42 *403:11 *139:250 4.883e-05
43 *403:12 *139:251 4.883e-05
44 *403:25 *139:82 2.97e-06
45 *403:18 *139:83 2.97e-06
46 *403:18 *139:82 5.93e-06
47 *403:19 *139:83 5.93000868e-06
48 *403:13 *38:10 2.412e-05
49 *403:14 *38:11 2.412e-05
50 *403:15 *38:8 5.902e-05
51 *403:16 *38:9 5.902e-05
52 *403:13 *38:8 0.0002462
53 *403:14 *38:9 0.0002462
54 *403:14 *38:8 0.00018337
55 *403:17 *38:9 0.00018337
56 *403:13 *38:6 7.209e-05
57 *403:14 *38:7 7.20899915e-05

*RES
1 *403:7 *944:D 1.40001
2 *403:8 *403:7 0.497177
3 *403:16 *403:8 1.40001
4 *403:10 *947:AN 1.40001
5 *403:16 *403:15 1.74001
6 *403:10 *403:9 0.372865
7 *403:17 *403:15 0.124312
8 *403:5 *952:Y 1.40001
9 *403:14 *403:9 1.40001
10 *403:17 *403:14 1.86425
11 *403:26 *945:B 1.40001
12 *403:6 *403:5 0.497177
13 *403:14 *403:13 4.722857
14 *403:26 *403:27 0.372865
15 *403:22 *403:6 1.40001
16 *403:12 *403:13 1.40001
17 *403:20 *403:27 1.40001
18 *403:20 *403:22 3.10716
19 *403:12 *403:11 0.745729
20 *403:21 *403:20 0.994282
21 *942:A1 *403:24 0.386701
22 *403:11 *403:19 0.124312
23 *403:25 *403:21 1.40001
24 *403:18 *403:24 1.40001
25 *403:19 *403:18 2.48574
26 *403:18 *403:25 0.124312
27 *403:23 *403:18 0.0643541
*END

*D_NET *404 0.000915902

*CONN
*I *951:Y O *C 56.405 58.435 *L 0 *D NOR2XL
*I *946:B I *C 52.635 61.335 *L 0.00167 *D NAND2XL
*I *943:A1 I *C 53.795 61.335 *L 0.00162 *D OA21XL

*CAP
1 *951:Y 3.68009e-05
2 *946:B 3.68009e-05
3 *943:A1 3.68009e-05
4 *404:3 8.8409e-05
5 *404:4 4.27214e-05
6 *404:5 8.53603e-05
7 *404:6 8.53603e-05
8 *404:7 0.00015895
9 *404:8 0.00015895
10 *404:9 5.38007e-05
11 *404:10 4.47296e-05
12 *404:11 8.72206e-05

*RES
1 *404:6 *951:Y 1.39999998
2 *404:6 *404:5 0.870001
3 *404:7 *404:5 1.39999998
4 *404:8 *404:7 1.11857
5 *404:10 *404:8 1.39999998
6 *404:9 *943:A1 1.39999998
7 *404:10 *404:9 0.372858
8 *404:9 *404:11 0.248572
9 *404:3 *404:11 0.497144
10 *404:4 *404:3 0.248572
11 *946:B *404:4 1.39999998
*END

*D_NET *405 0.00246206

*CONN
*I *950:Y O *C 57.565 55.535 *L 0 *D NAND2XL
*I *948:B0 I *C 59.305 55.825 *L 0.00167 *D OA21X1
*I *934:B I *C 65.685 50.895 *L 0.00167 *D NAND2XL
*I *931:A1 I *C 65.105 56.115 *L 0.00274 *D OAI21X1

*CAP
1 *950:Y 3.68006e-05
2 *948:B0 3.68006e-05
3 *934:B 3.68006e-05
4 *931:A1 3.68006e-05
5 *405:4 5.68722e-05
6 *405:5 6.55595e-05
7 *405:6 0.000131318
8 *405:7 0.000131318
9 *405:8 0.000250360859
10 *405:9 0.000250360859
11 *405:10 4.55795e-05
12 *405:11 4.55795e-05
13 *405:12 6.47305e-05
14 *405:13 0.00016473
15 *405:14 0.00013293
16 *405:15 9.59497e-05
17 *405:16 9.59497e-05
18 *405:18 0.000104771
19 *405:19 4.34402e-05
20 *405:20 0.000102479
21 *405:21 8.12111e-05
22 *405:22 8.03286e-05
23 *405:23 3.24493e-05
24 *405:12 *105:14 5.86e-06
25 *405:13 *105:13 5.86e-06
26 *405:13 *105:13 2.736e-05
27 *405:14 *105:12 2.736e-05
28 *405:8 *105:10 0.00013625
29 *405:9 *105:11 0.000136249996

*RES
1 *405:19 *950:Y 1.4
2 *405:18 *405:19 0.248564
3 *405:18 *405:20 0.621436
4 *405:5 *948:B0 1.4
5 *405:20 *405:5 0.248564
6 *405:7 *934:B 1.4
7 *405:5 *405:4 0.372846
8 *405:7 *405:6 0.497154
9 *405:21 *405:4 1.4
10 *405:11 *405:6 1.4
11 *405:21 *405:22 0.372846
12 *405:11 *405:10 0.248564
13 *405:16 *405:22 0.124282
14 *405:9 *405:10 1.4
15 *405:16 *405:15 0.745718
16 *405:9 *405:8 1.74000001
17 *405:14 *405:15 0.124282
18 *405:12 *405:8 1.4
19 *405:14 *405:13 1.36715
20 *405:13 *405:12 0.497154
21 *405:23 *931:A1 1.4
22 *405:23 *405:13 1.4
23 *405:17 *405:23 0.157178
*END

*D_NET *406 0.000416681

*CONN
*I *949:Y O *C 22.475 53.215 *L 0 *D NAND3X1
*I *937:A I *C 23.635 50.605 *L 0.00162 *D NOR2XL

*CAP
1 *949:Y 3.67997e-05
2 *937:A 3.67997e-05
3 *406:2 9.54497e-05
4 *406:3 4.96398e-05
5 *406:4 0.0001219
6 *406:5 7.60901e-05

*RES
1 *406:3 *937:A 1.39999998
2 *406:3 *406:2 0.497144
3 *406:5 *949:Y 1.39999998
4 *406:4 *406:2 0.497144
5 *406:4 *406:5 0.621429
*END

*D_NET *407 0.000903659

*CONN
*I *947:Y O *C 32.08 48.345 *L 0 *D NOR2BXL
*I *941:B I *C 31.465 48.285 *L 0.00167 *D NAND2XL
*I *940:AN I *C 30.015 48.285 *L 0.00174 *D NOR2BX1
*I *936:A1 I *C 32.335 45.675 *L 0.00162 *D OA21XL

*CAP
1 *947:Y 3.67994e-05
2 *941:B 3.67994e-05
3 *940:AN 3.67994e-05
4 *936:A1 3.67994e-05
5 *407:6 3.24501e-05
6 *407:7 8.75196e-05
7 *407:8 7.17501e-05
8 *407:9 5.72598e-05
9 *407:10 8.75196e-05
10 *407:11 7.93211e-05
11 *407:12 4.91708e-05
12 *407:13 0.00014632
13 *407:14 0.00014515

*RES
1 *407:13 *936:A1 1.39999998
2 *407:13 *407:14 0.745715
3 *407:12 *947:Y 1.39999998
4 *407:11 *407:14 0.124286
5 *407:11 *407:12 0.248572
6 *407:8 *407:11 0.248572
7 *407:9 *941:B 1.39999998
8 *407:5 *407:9 0.193051
9 *407:8 *407:9 0.372858
10 *407:10 *407:9 1.39999998
11 *407:7 *407:10 0.621429
12 *407:6 *940:AN 1.39999998
13 *407:6 *407:7 1.39999998
14 *407:4 *407:6 0.193051
*END

*D_NET *408 0.00144491

*CONN
*I *946:Y O *C 52.635 60.755 *L 0 *D NAND2XL
*I *943:B0 I *C 54.375 60.755 *L 0.0017 *D OA21XL
*I *928:B I *C 59.305 58.725 *L 0.00167 *D NAND2XL
*I *924:A1 I *C 58.145 61.335 *L 0.00274 *D OAI21X1

*CAP
1 *946:Y 3.68013e-05
2 *943:B0 3.68013e-05
3 *928:B 3.68013e-05
4 *924:A1 3.68013e-05
5 *408:4 4.17899e-05
6 *408:5 8.74817e-05
7 *408:6 0.00016825
8 *408:7 0.00016825
9 *408:8 0.000117801
10 *408:9 5.64689e-05
11 *408:10 0.000124249
12 *408:11 5.51103e-05
13 *408:12 0.000155619
14 *408:13 0.000200080645
15 *408:14 0.00012261

*RES
1 *408:4 *928:B 1.39999
2 *408:5 *408:4 0.24856
3 *408:12 *408:5 0.497145
4 *408:14 *924:A1 1.39999
5 *408:12 *408:13 0.745705
6 *408:13 *408:14 0.621425
7 *408:6 *408:13 1.39999
8 *408:7 *408:6 1.61571431
9 *408:11 *943:B0 1.39999
10 *408:10 *408:7 1.39999
11 *408:10 *408:11 0.372865
12 *408:9 *946:Y 1.39999
13 *408:8 *408:10 0.621425
14 *408:8 *408:9 0.497145
*END

*D_NET *409 0.00229651

*CONN
*I *968:A1 I *C 40.165 56.115 *L 0.00171 *D AOI211XL
*I *945:Y O *C 46.545 55.535 *L 0 *D NAND2XL
*I *942:B0 I *C 44.805 55.535 *L 0.0017 *D OA21XL
*I *927:B I *C 36.105 61.335 *L 0.00171 *D NOR2XL

*CAP
1 *968:A1 3.68004e-05
2 *945:Y 2.56609e-05
3 *942:B0 3.68004e-05
4 *927:B 3.68004e-05
5 *409:4 6.83406e-05
6 *409:5 0.000126019
7 *409:6 4.44488e-05
8 *409:7 0.000155909
9 *409:8 0.000155909
10 *409:9 0.0001444
11 *409:10 5.3371e-05
12 *409:11 6.23817e-05
13 *409:12 6.23817e-05
14 *409:13 0.00019323082
15 *409:14 0.00019323082
16 *409:15 0.00012229
17 *409:16 3.90707e-05
18 *409:17 5.29406e-05
19 *409:18 7.03309e-05
20 *409:7 *44:19 1.393e-05
21 *409:8 *44:18 1.393e-05
22 *409:9 *44:5 5.939e-05
23 *409:10 *44:6 5.939e-05
24 *409:11 *44:17 3.7e-05
25 *409:12 *44:16 3.69999976e-05
26 *409:7 *9:10 0.00019778
27 *409:8 *9:11 0.000197780002

*RES
1 *409:17 *945:Y 0.386663
2 *409:6 *942:B0 1.4
3 *409:18 *409:17 1.4
4 *409:6 *409:5 0.248571
5 *409:5 *409:18 0.372857
6 *409:5 *409:4 0.497143
7 *409:7 *409:4 1.4
8 *409:10 *968:A1 1.4
9 *409:8 *409:7 1.98857141
10 *409:10 *409:9 0.621429
11 *409:9 *409:8 1.4
12 *409:9 *409:15 1.11857
13 *409:16 *409:15 0.124286
14 *409:13 *409:16 1.4
15 *409:11 *927:B 1.4
16 *409:14 *409:13 1.61571
17 *409:12 *409:11 0.497143
18 *409:12 *409:14 1.4
*END

*D_NET *410 0.00132328

*CONN
*I *969:A1 I *C 18.415 50.605 *L 0.00279 *D AOI211X1
*I *944:Y O *C 24.215 50.315 *L 0 *D NAND4XL
*I *937:B I *C 23.345 50.895 *L 0.00171 *D NOR2XL
*I *935:B I *C 20.735 53.505 *L 0.00171 *D NOR2XL
*I *932:B I *C 20.445 50.895 *L 0.00171 *D NOR2XL

*CAP
1 *969:A1 3.67992e-05
2 *944:Y 3.67992e-05
3 *937:B 3.67992e-05
4 *935:B 3.67992e-05
5 *932:B 3.67992e-05
6 *410:5 4.61919e-05
7 *410:6 4.61919e-05
8 *410:7 6.54991e-05
9 *410:8 6.66705e-05
10 *410:9 0.000171821
11 *410:10 0.00019992
12 *410:11 8.39124e-05
13 *410:15 3.24521e-05
14 *410:16 8.52089e-05
15 *410:17 8.63803e-05
16 *410:18 3.24521e-05
17 *410:19 5.58104e-05
18 *410:10 *390:3 8.339e-05
19 *410:11 *390:4 8.33900024e-05

*RES
1 *410:17 *935:B 1.39999998
2 *410:6 *944:Y 1.39999998
3 *410:16 *410:17 0.621429
4 *410:6 *410:5 0.248572
5 *410:7 *410:16 0.124286
6 *410:18 *937:B 1.39999998
7 *410:14 *410:18 0.193051
8 *410:19 *410:5 1.39999998
9 *410:8 *932:B 1.39999998
10 *410:13 *410:8 0.193051
11 *410:8 *410:7 0.497144
12 *410:9 *410:18 1.39999998
13 *410:9 *410:19 0.372858
14 *410:10 *410:8 1.39999998
15 *410:10 *410:9 1.24286
16 *410:11 *410:10 0.870001
17 *410:15 *969:A1 1.39999998
18 *410:15 *410:11 1.39999998
19 *410:12 *410:15 0.193051
*END

*D_NET *411 0.00170139

*CONN
*I *941:Y O *C 31.465 48.865 *L 0 *D NAND2XL
*I *936:B0 I *C 32.915 45.095 *L 0.0017 *D OA21XL
*I *920:B I *C 34.365 48.285 *L 0.00167 *D NAND2XL
*I *919:A1 I *C 36.685 45.675 *L 0.00274 *D OAI21X1

*CAP
1 *941:Y 3.67985e-05
2 *936:B0 3.67985e-05
3 *920:B 3.67985e-05
4 *919:A1 3.67985e-05
5 *411:4 0.00021368
6 *411:5 0.00021368
7 *411:6 8.04605e-05
8 *411:7 8.04605e-05
9 *411:10 3.2449e-05
10 *411:11 0.0001226
11 *411:12 9.13312e-05
12 *411:13 0.000164521
13 *411:14 0.000104481
14 *411:15 5.88301e-05
15 *411:16 6.00006e-05
16 *411:17 0.000149118
17 *411:18 4.4901e-05
18 *411:19 5.96517e-05
19 *411:20 3.2449e-05
20 *411:21 4.55792e-05

*RES
1 *411:7 *919:A1 1.4
2 *411:7 *411:6 0.372846
3 *411:4 *411:6 1.4
4 *411:12 *936:B0 1.4
5 *411:5 *411:4 1.74000001
6 *411:12 *411:13 0.497154
7 *411:13 *411:5 1.4
8 *411:20 *920:B 1.4
9 *411:9 *411:20 0.193047
10 *411:13 *411:14 0.497154
11 *411:21 *411:20 1.4
12 *411:14 *411:15 0.124282
13 *411:18 *411:21 0.248564
14 *411:15 *411:16 0.372846
15 *411:18 *411:19 0.124282
16 *411:17 *411:16 1.4
17 *411:17 *411:19 0.248564
18 *411:11 *411:17 0.621436
19 *411:10 *411:11 1.4
20 *411:10 *941:Y 1.4
21 *411:8 *411:10 0.193047
*END

*D_NET *412 0.000572445

*CONN
*I *940:Y O *C 29.155 48.575 *L 0 *D NOR2BX1
*I *933:B I *C 28.565 48.285 *L 0.00167 *D NAND2XL
*I *930:A1 I *C 27.115 48.285 *L 0.00162 *D OA21XL

*CAP
1 *940:Y 3.67993e-05
2 *933:B 3.67993e-05
3 *930:A1 3.67993e-05
4 *412:3 0.00010753
5 *412:4 4.60592e-05
6 *412:5 0.00013912
7 *412:6 4.63288e-05
8 *412:7 6.87501e-05
9 *412:8 5.42597e-05

*RES
1 *412:8 *940:Y 1.39999998
2 *412:6 *933:B 1.39999998
3 *412:7 *412:8 0.372858
4 *412:4 *930:A1 1.39999998
5 *412:5 *412:6 0.248572
6 *412:5 *412:7 0.248572
7 *412:3 *412:4 0.248572
8 *412:3 *412:5 0.621429
*END

*D_NET *413 0.000822042

*CONN
*I *939:Y O *C 50.025 59.305 *L 0 *D NAND2XL
*I *938:B0 I *C 44.515 61.045 *L 0.0028 *D OAI21X1

*CAP
1 *939:Y 3.67998e-05
2 *938:B0 3.67998e-05
3 *413:2 0.00025763
4 *413:3 0.00025763
5 *413:4 5.96793e-05
6 *413:5 5.96793e-05
7 *413:6 5.69117e-05
8 *413:7 5.69117e-05

*RES
1 *413:6 *939:Y 1.40001
2 *413:6 *413:7 0.372865
3 *413:2 *413:7 1.40001
4 *413:5 *938:B0 1.40001
5 *413:3 *413:2 2.3614285
6 *413:4 *413:5 0.497141
7 *413:4 *413:3 1.40001
*END

*D_NET *414 0.00115456

*CONN
*I *937:Y O *C 23.055 51.185 *L 0 *D NOR2XL
*I *925:B I *C 21.605 45.675 *L 0.00167 *D NAND2XL
*I *923:A1 I *C 20.155 43.065 *L 0.00162 *D OA21XL

*CAP
1 *937:Y 3.68014e-05
2 *925:B 3.68014e-05
3 *923:A1 3.68014e-05
4 *414:3 7.28586e-05
5 *414:4 0.00011984
6 *414:5 0.000148662
7 *414:6 0.000102849
8 *414:7 0.00016848
9 *414:8 0.00019199
10 *414:9 0.000100189
11 *414:10 8.45301e-05
12 *414:11 5.47597e-05

*RES
1 *414:11 *937:Y 1.39999
2 *414:10 *414:11 0.24856
3 *414:9 *414:10 0.745705
4 *414:8 *414:9 0.372865
5 *414:7 *925:B 1.39999
6 *414:7 *414:8 1.61571431
7 *414:3 *414:7 0.12428
8 *414:4 *414:3 0.497145
9 *414:5 *414:4 0.497145
10 *414:6 *414:5 0.621425
11 *923:A1 *414:6 1.39999
*END

*D_NET *415 0.00171261

*CONN
*I *935:Y O *C 20.445 53.215 *L 0 *D NOR2XL
*I *929:AN I *C 22.475 56.405 *L 0.00173 *D NOR2BX2
*I *926:B I *C 16.095 58.725 *L 0.00167 *D NAND2XL
*I *922:A1 I *C 17.255 56.115 *L 0.00162 *D OA21XL

*CAP
1 *935:Y 3.67993e-05
2 *929:AN 3.67993e-05
3 *926:B 3.67993e-05
4 *922:A1 3.67993e-05
5 *415:4 7.58498e-05
6 *415:5 7.13798e-05
7 *415:6 7.48103e-05
8 *415:7 6.81989e-05
9 *415:8 0.00012952
10 *415:9 0.000127701
11 *415:10 0.000127701
12 *415:11 6.16801e-05
13 *415:12 6.16801e-05
14 *415:13 9.77606e-05
15 *415:14 9.77606e-05
16 *415:15 5.95689e-05
17 *415:16 6.07698e-05
18 *415:17 0.00014104
19 *415:18 4.84488e-05
20 *415:9 *486:2 0.00013077
21 *415:10 *486:3 0.00013077

*RES
1 *415:18 *929:AN 1.39999998
2 *415:17 *415:18 0.372858
3 *415:5 *935:Y 1.39999998
4 *415:8 *415:17 0.870001
5 *415:5 *415:4 0.745715
6 *415:4 *415:8 0.248572
7 *415:9 *415:4 1.39999998
8 *415:10 *415:9 1.36714
9 *415:7 *415:10 1.39999998
10 *415:6 *922:A1 1.39999998
11 *415:7 *415:6 0.497144
12 *415:15 *415:6 0.124286
13 *415:15 *415:16 0.248572
14 *415:11 *415:16 1.39999998
15 *415:14 *926:B 1.39999998
16 *415:12 *415:11 0.372858
17 *415:13 *415:14 0.870001
18 *415:13 *415:12 1.39999998
*END

*D_NET *416 0.00096342

*CONN
*I *934:Y O *C 65.685 50.315 *L 0 *D NAND2XL
*I *931:B0 I *C 64.525 55.825 *L 0.0028 *D OAI21X1

*CAP
1 *934:Y 3.67994e-05
2 *931:B0 3.67994e-05
3 *416:2 4.399e-05
4 *416:3 8.96821e-05
5 *416:4 0.000103872
6 *416:5 0.000102671
7 *416:6 0.000251361
8 *416:7 0.00029825

*RES
1 *416:4 *934:Y 1.39999
2 *416:4 *416:5 0.869992
3 *416:5 *416:6 0.124278
4 *416:6 *416:7 1.49142861
5 *416:3 *416:7 0.497135
6 *416:2 *416:3 0.248579
7 *931:B0 *416:2 1.39999
*END

*D_NET *417 0.00195978

*CONN
*I *933:Y O *C 28.565 48.865 *L 0 *D NAND2XL
*I *930:B0 I *C 26.535 48.865 *L 0.0017 *D OA21XL
*I *917:B I *C 30.305 43.065 *L 0.00167 *D NAND2XL
*I *916:A1 I *C 27.985 42.775 *L 0.00166 *D OAI21XL

*CAP
1 *933:Y 3.6798e-05
2 *930:B0 3.6798e-05
3 *917:B 3.6798e-05
4 *916:A1 3.6798e-05
5 *417:4 0.00044095
6 *417:5 0.000387331
7 *417:6 4.04583e-05
8 *417:7 3.97787e-05
9 *417:8 0.000103746
10 *417:9 6.6558e-05
11 *417:11 7.6469e-05
12 *417:12 4.5148e-05
13 *417:13 3.24514e-05
14 *417:14 2.94909e-05
15 *417:15 4.5148e-05
16 *417:16 3.90991e-05
17 *417:17 7.03192e-05
18 *417:18 3.88771e-05
19 *417:19 3.88771e-05
20 *417:20 3.90991e-05
21 *417:21 3.90991e-05
22 *417:17 *101:2 7.453e-05
23 *417:8 *101:3 7.453e-05
24 *417:8 *101:2 3.685e-05
25 *417:9 *101:3 3.685e-05
26 *417:6 *101:2 8.45e-06
27 *417:7 *101:3 8.45000224e-06

*RES
1 *417:16 *933:Y 1.39998
2 *417:14 *417:16 0.124295
3 *417:21 *917:B 1.39998
4 *417:14 *417:15 0.124295
5 *417:19 *417:21 0.124295
6 *417:12 *417:15 0.24859
7 *417:18 *417:19 0.24859
8 *417:11 *417:12 0.124295
9 *417:18 *417:20 0.124295
10 *417:4 *930:B0 1.39998
11 *417:4 *417:11 0.497141
12 *417:6 *417:20 1.39998
13 *417:5 *417:4 2.6099999
14 *417:7 *417:6 0.24859
15 *417:9 *417:5 1.39998
16 *417:7 *417:17 0.124295
17 *417:9 *417:8 0.621436
18 *417:8 *417:17 0.745731
19 *417:13 *916:A1 1.39998
20 *417:13 *417:8 1.39998
21 *417:10 *417:13 0.193074
*END

*D_NET *418 0.00107048

*CONN
*I *969:B0 I *C 18.705 50.605 *L 0.00277 *D AOI211X1
*I *932:Y O *C 20.155 51.185 *L 0 *D NOR2XL
*I *908:B I *C 14.355 48.575 *L 0.00407 *D ADDHX1

*CAP
1 *969:B0 3.68015e-05
2 *932:Y 3.68015e-05
3 *908:B 3.68015e-05
4 *418:3 6.8971e-05
5 *418:4 6.8971e-05
6 *418:5 7.54115e-05
7 *418:6 7.54115e-05
8 *418:7 0.00024188
9 *418:8 0.00019377
10 *418:9 5.79095e-05
11 *418:10 5.67395e-05
12 *418:11 3.90972e-05
13 *418:12 8.19222e-05

*RES
1 *418:3 *932:Y 1.4
2 *418:5 *969:B0 1.4
3 *418:4 *418:3 0.621436
4 *418:6 *418:5 0.497154
5 *418:12 *418:4 1.4
6 *418:7 *418:6 1.4
7 *418:7 *418:12 0.621436
8 *418:8 *418:7 1.74000001
9 *418:9 *418:8 1.4
10 *418:10 *418:9 0.497154
11 *418:11 *418:10 0.124282
12 *908:B *418:11 1.4
*END

*D_NET *419 0.00192759

*CONN
*I *929:Y O *C 20.735 56.115 *L 0 *D NOR2BX2
*I *921:B I *C 18.125 58.725 *L 0.00167 *D NAND2XL
*I *918:A1 I *C 23.925 61.335 *L 0.00162 *D OA21XL

*CAP
1 *929:Y 3.67993e-05
2 *921:B 3.67993e-05
3 *918:A1 3.67993e-05
4 *419:3 0.000127052
5 *419:4 0.000206671094
6 *419:5 6.93508e-05
7 *419:6 6.93508e-05
8 *419:7 0.000113432
9 *419:8 0.000168929
10 *419:9 0.000168929
11 *419:10 0.000202061
12 *419:11 0.000202061
13 *419:3 *9:6 0.00013489
14 *419:4 *9:7 0.00013489
15 *419:4 *9:6 0.00010979
16 *419:7 *9:7 0.000109790004

*RES
1 *419:11 *918:A1 1.40001
2 *419:10 *419:11 1.86428571
3 *419:6 *929:Y 1.40001
4 *419:3 *419:10 1.40001
5 *419:6 *419:5 0.372851
6 *419:4 *419:3 1.36715
7 *419:4 *419:5 1.40001
8 *419:9 *921:B 1.40001
9 *419:7 *419:4 1.11858
10 *419:8 *419:9 0.745703
11 *419:8 *419:7 1.40001
*END

*D_NET *420 0.000444241

*CONN
*I *928:Y O *C 59.305 59.305 *L 0 *D NAND2XL
*I *924:B0 I *C 58.725 61.045 *L 0.0028 *D OAI21X1

*CAP
1 *928:Y 3.67995e-05
2 *924:B0 3.67995e-05
3 *420:2 0.00014133
4 *420:3 0.0001269
5 *420:4 4.39895e-05
6 *420:5 5.84211e-05

*RES
1 *420:4 *928:Y 1.39999998
2 *420:3 *924:B0 1.39999998
3 *420:4 *420:5 0.248572
4 *420:2 *420:3 0.621429
5 *420:2 *420:5 0.248572
*END

*D_NET *421 0.00256986

*CONN
*I *968:B0 I *C 40.745 56.115 *L 0.00174 *D AOI211XL
*I *927:Y O *C 36.395 61.625 *L 0 *D NOR2XL
*I *915:B I *C 36.685 56.115 *L 0.00167 *D NAND2XL
*I *910:A1 I *C 32.045 61.335 *L 0.00162 *D OA21XL

*CAP
1 *968:B0 3.67973e-05
2 *927:Y 3.67973e-05
3 *915:B 3.67973e-05
4 *910:A1 3.2801e-05
5 *421:4 0.000312952
6 *421:5 0.00034688
7 *421:6 4.79921e-05
8 *421:7 4.79921e-05
9 *421:8 0.00020419
10 *421:9 0.00020419
11 *421:10 6.51892e-05
12 *421:11 0.000303848
13 *421:12 0.00030317
14 *421:15 6.00814e-05
15 *421:16 3.24517e-05
16 *421:17 5.95309e-05
17 *421:18 5.88534e-05
18 *421:19 3.90733e-05
19 *421:8 *9:10 0.00017014
20 *421:9 *9:11 0.000170139997

*RES
1 *421:7 *968:B0 1.4
2 *421:7 *421:6 0.372857
3 *421:8 *421:6 1.4
4 *421:10 *915:B 1.4
5 *421:9 *421:8 1.74
6 *421:10 *421:5 0.372857
7 *421:5 *421:9 1.4
8 *421:5 *421:4 1.98857141
9 *421:14 *421:19 0.157178
10 *421:19 *421:4 0.124286
11 *421:19 *927:Y 1.4
12 *421:11 *421:19 1.4
13 *421:12 *421:11 1.61571
14 *421:12 *421:18 0.124286
15 *910:A1 *421:15 0.386663
16 *421:17 *421:18 0.248571
17 *421:16 *421:15 1.4
18 *421:16 *421:17 1.4
19 *421:13 *421:16 0.193074
*END

*D_NET *422 0.00127477

*CONN
*I *926:Y O *C 16.095 59.305 *L 0 *D NAND2XL
*I *922:B0 I *C 16.675 55.535 *L 0.0017 *D OA21XL
*I *914:B I *C 14.645 58.725 *L 0.00167 *D NAND2XL
*I *911:A1 I *C 11.165 61.335 *L 0.00274 *D OAI21X1

*CAP
1 *926:Y 3.68013e-05
2 *922:B0 3.68013e-05
3 *914:B 3.68013e-05
4 *911:A1 3.68013e-05
5 *422:4 9.343e-05
6 *422:5 9.46294e-05
7 *422:6 6.09206e-05
8 *422:7 5.97211e-05
9 *422:8 0.0001778
10 *422:9 0.000138331
11 *422:12 0.00019850002
12 *422:13 0.00019850002
13 *422:14 3.24518e-05
14 *422:15 7.32816e-05

*RES
1 *422:5 *922:B0 1.39999
2 *422:5 *422:4 0.994293
3 *422:13 *911:A1 1.39999
4 *422:7 *422:4 0.124278
5 *422:12 *422:13 1.11857
6 *422:7 *422:6 0.248579
7 *422:11 *422:6 0.193051
8 *422:6 *926:Y 1.39999
9 *422:9 *422:12 1.39999
10 *422:15 *422:6 1.39999
11 *422:9 *422:8 1.49142861
12 *422:8 *422:15 0.745714
13 *422:14 *914:B 1.39999
14 *422:14 *422:8 1.39999
15 *422:10 *422:14 0.193051
*END

*D_NET *423 0.00104835

*CONN
*I *925:Y O *C 21.605 45.095 *L 0 *D NAND2XL
*I *923:B0 I *C 20.735 43.645 *L 0.0017 *D OA21XL
*I *913:B I *C 18.995 43.065 *L 0.00167 *D NAND2XL
*I *912:A1 I *C 17.545 43.065 *L 0.00274 *D OAI21X1

*CAP
1 *925:Y 3.67986e-05
2 *923:B0 3.67986e-05
3 *913:B 3.67986e-05
4 *912:A1 3.67986e-05
5 *423:4 6.69508e-05
6 *423:5 4.4921e-05
7 *423:6 3.13404e-05
8 *423:7 3.13404e-05
9 *423:8 8.12785e-05
10 *423:9 0.000111431
11 *423:10 3.77091e-05
12 *423:11 3.77091e-05
13 *423:12 7.35012e-05
14 *423:13 0.000170010195
15 *423:14 0.000130319
16 *423:17 8.46406e-05

*RES
1 *423:8 *925:Y 1.39999998
2 *423:9 *423:8 0.372858
3 *423:17 *423:9 0.372858
4 *423:4 *923:B0 1.39999998
5 *423:4 *423:17 0.372858
6 *423:6 *913:B 1.39999998
7 *423:5 *423:4 0.248572
8 *423:16 *423:7 0.0643219
9 *423:7 *423:6 0.124286
10 *423:12 *423:5 1.39999998
11 *423:13 *423:7 1.39999998
12 *423:13 *423:12 0.745715
13 *423:14 *423:13 0.621429
14 *423:11 *423:14 1.39999998
15 *423:10 *912:A1 1.39999998
16 *423:11 *423:10 0.124286
17 *423:15 *423:10 0.18284
*END

*D_NET *424 0.00164592

*CONN
*I *778:A I *C 27.115 56.405 *L 0.00172 *D DLY3X1
*I *921:Y O *C 18.125 59.305 *L 0 *D NAND2XL

*CAP
1 *778:A 3.68007e-05
2 *921:Y 3.68007e-05
3 *424:2 5.91519e-05
4 *424:3 5.91519e-05
5 *424:4 0.00010716
6 *424:5 0.00010716
7 *424:6 0.000160339
8 *424:7 0.000160339
9 *424:8 0.00038076
10 *424:9 0.000379883
11 *424:10 7.87491e-05
12 *424:11 7.96322e-05

*RES
1 *424:3 *778:A 1.40001
2 *424:3 *424:2 0.497135
3 *424:8 *424:2 1.40001
4 *424:9 *424:8 2.1128571
5 *424:9 *424:6 0.124284
6 *424:7 *424:6 1.49144
7 *424:10 *424:7 0.124284
8 *424:11 *424:10 0.372851
9 *424:4 *921:Y 1.40001
10 *424:5 *424:11 1.40001
11 *424:5 *424:4 0.372851
*END

*D_NET *425 0.000788158

*CONN
*I *920:Y O *C 34.365 48.865 *L 0 *D NAND2XL
*I *919:B0 I *C 37.265 45.385 *L 0.0028 *D OAI21X1

*CAP
1 *920:Y 3.68003e-05
2 *919:B0 3.68003e-05
3 *425:2 0.00017163957
4 *425:3 0.00017163957
5 *425:4 0.000121571
6 *425:5 0.000121571
7 *425:6 6.40699e-05
8 *425:7 6.40699e-05

*RES
1 *425:3 *919:B0 1.39999998
2 *425:3 *425:2 0.745715
3 *425:4 *425:2 1.39999998
4 *425:5 *425:4 1.11857
5 *425:7 *920:Y 1.39999998
6 *425:6 *425:5 1.39999998
7 *425:6 *425:7 0.248572
*END

*D_NET *426 0.000466871

*CONN
*I *917:Y O *C 30.305 43.645 *L 0 *D NAND2XL
*I *916:B0 I *C 27.405 43.065 *L 0.00169 *D OAI21XL

*CAP
1 *917:Y 3.68001e-05
2 *916:B0 3.68001e-05
3 *426:2 4.16402e-05
4 *426:3 5.61308e-05
5 *426:4 5.47605e-05
6 *426:5 8.12701611e-05
7 *426:6 3.91005e-05
8 *426:7 8.12701611e-05
9 *426:8 3.91005e-05

*RES
1 *426:8 *917:Y 1.39999998
2 *426:6 *426:8 0.124286
3 *426:7 *426:6 1.39999998
4 *426:5 *426:7 0.870001
5 *426:4 *426:5 1.39999998
6 *426:3 *426:4 0.248572
7 *426:2 *426:3 0.248572
8 *916:B0 *426:2 1.39999998
*END

*D_NET *427 0.00222427

*CONN
*I *915:Y O *C 36.685 55.535 *L 0 *D NAND2XL
*I *910:B0 I *C 32.625 60.755 *L 0.0017 *D OA21XL
*I *904:B I *C 28.275 58.725 *L 0.00167 *D NAND2XL
*I *903:A1 I *C 29.725 58.725 *L 0.00274 *D OAI21X1

*CAP
1 *915:Y 3.6802e-05
2 *910:B0 3.6802e-05
3 *904:B 3.6802e-05
4 *903:A1 3.6802e-05
5 *427:4 3.9558e-05
6 *427:5 3.9558e-05
7 *427:6 0.000211381
8 *427:7 0.00025914
9 *427:8 8.15717e-05
10 *427:9 0.000104059
11 *427:10 4.27412e-05
12 *427:11 9.83099e-05
13 *427:12 3.69878e-05
14 *427:13 0.00025483
15 *427:14 0.00025483
16 *427:6 *378:5 1.25e-05
17 *427:7 *378:6 1.25e-05
18 *427:7 *378:5 0.00012127
19 *427:8 *378:6 0.00012127
20 *427:4 *378:10 1.21e-05
21 *427:5 *378:11 1.20999987e-05
22 *427:6 *490:2 4.974e-05
23 *427:7 *490:3 4.974e-05
24 *427:7 *490:2 4.549e-05
25 *427:8 *490:3 4.54900006e-05
26 *427:4 *379:5 8.595e-05
27 *427:5 *379:6 8.59500004e-05

*RES
1 *427:13 *915:Y 1.40001
2 *427:4 *910:B0 1.40001
3 *427:13 *427:14 0.994299
4 *427:5 *427:4 0.869987
5 *427:6 *427:14 1.40001
6 *427:7 *427:5 1.40001
7 *427:7 *427:6 1.86428571
8 *427:8 *427:7 1.24287
9 *427:12 *903:A1 1.40001
10 *427:12 *427:8 1.40001
11 *427:10 *904:B 1.40001
12 *427:11 *427:12 0.248568
13 *427:9 *427:10 0.248568
14 *427:9 *427:11 0.621419
*END

*D_NET *428 0.00110444

*CONN
*I *914:Y O *C 14.645 59.305 *L 0 *D NAND2XL
*I *911:B0 I *C 10.585 61.045 *L 0.0028 *D OAI21X1

*CAP
1 *914:Y 3.68022e-05
2 *911:B0 3.68022e-05
3 *428:2 6.71777e-05
4 *428:3 6.71777e-05
5 *428:4 0.000105262
6 *428:5 0.000105262
7 *428:6 0.00034298
8 *428:7 0.00034298

*RES
1 *428:5 *914:Y 1.4
2 *428:5 *428:4 0.497154
3 *428:6 *428:4 1.4
4 *428:2 *911:B0 1.4
5 *428:7 *428:6 1.74000001
6 *428:3 *428:2 0.372846
7 *428:3 *428:7 1.4
*END

*D_NET *429 0.0005043

*CONN
*I *913:Y O *C 18.995 43.645 *L 0 *D NAND2XL
*I *912:B0 I *C 16.965 43.355 *L 0.0028 *D OAI21X1

*CAP
1 *913:Y 3.68005e-05
2 *912:B0 3.68005e-05
3 *429:2 0.0001829
4 *429:3 0.0001829
5 *429:6 3.24495e-05
6 *429:7 3.24495e-05

*RES
1 *429:5 *429:7 0.0299927
2 *429:7 *913:Y 1.39999998
3 *429:2 *429:7 1.39999998
4 *429:3 *429:2 0.994287
5 *429:6 *912:B0 1.39999998
6 *429:6 *429:3 1.39999998
7 *429:4 *429:6 0.193051
*END

*D_NET *430 0.00142534

*CONN
*I *909:Y O *C 27.405 59.305 *L 0 *D NAND2XL
*I *907:B0 I *C 20.155 59.015 *L 0.0028 *D OAI21X1

*CAP
1 *909:Y 3.67977e-05
2 *907:B0 3.67977e-05
3 *430:2 0.00064342
4 *430:3 0.00064342
5 *430:6 3.24484e-05
6 *430:7 3.24484e-05

*RES
1 *430:5 *430:7 0.19304
2 *430:7 *909:Y 1.39999
3 *430:2 *430:7 1.39999
4 *430:3 *430:2 3.23142862
5 *430:6 *907:B0 1.39999
6 *430:6 *430:3 1.39999
7 *430:4 *430:6 0.19304
*END

*D_NET *431 0.00150881

*CONN
*I *908:CO O *C 15.515 48.285 *L 0 *D ADDHX1
*I *906:B I *C 5.655 50.895 *L 0.00167 *D NAND2XL
*I *905:A1 I *C 7.105 50.895 *L 0.00162 *D OA21XL

*CAP
1 *908:CO 3.68e-05
2 *906:B 3.68e-05
3 *905:A1 3.68e-05
4 *431:3 8.93025e-05
5 *431:4 4.23213e-05
6 *431:5 0.00027537
7 *431:6 0.00027537
8 *431:7 0.000132212
9 *431:8 0.000118337
10 *431:9 3.91027e-05
11 *431:10 4.86199e-05
12 *431:11 9.21388e-05
13 *431:12 4.79392e-05
14 *431:13 5.88431e-05
15 *431:14 5.96709e-05
16 *431:15 5.96709e-05
17 *431:16 5.95196e-05

*RES
1 *431:14 *908:CO 1.40002
2 *431:14 *431:15 0.37285
3 *431:16 *431:15 1.40002
4 *431:13 *431:16 0.37285
5 *431:5 *431:13 0.124269
6 *431:6 *431:5 2.85857153
7 *431:6 *431:12 0.124269
8 *431:10 *431:12 0.37285
9 *431:8 *431:10 1.40002
10 *431:7 *905:A1 1.40002
11 *431:8 *431:7 0.745699
12 *431:7 *431:11 0.248581
13 *431:3 *431:11 0.497162
14 *431:4 *431:3 0.248581
15 *431:9 *431:4 0.124269
16 *906:B *431:9 1.40002
*END

*D_NET *432 0.00186707

*CONN
*I *906:Y O *C 5.655 50.315 *L 0 *D NAND2XL
*I *905:B0 I *C 7.685 50.315 *L 0.0017 *D OA21XL
*I *902:B I *C 5.655 56.115 *L 0.00167 *D NAND2XL
*I *901:A1 I *C 12.615 56.115 *L 0.00274 *D OAI21X1

*CAP
1 *906:Y 3.68014e-05
2 *905:B0 3.68014e-05
3 *902:B 3.68014e-05
4 *901:A1 3.68014e-05
5 *432:4 6.52629e-05
6 *432:5 0.000143421
7 *432:6 8.76001e-05
8 *432:7 8.76001e-05
9 *432:8 0.00032552
10 *432:9 0.000220913
11 *432:10 7.83116e-05
12 *432:11 7.83116e-05
13 *432:12 0.000258469
14 *432:13 0.000258469
15 *432:16 3.24502e-05
16 *432:17 3.90713e-05
17 *432:18 4.44805e-05

*RES
1 *432:10 *901:A1 1.40001
2 *432:11 *432:10 0.248568
3 *432:17 *902:B 1.40001
4 *432:12 *432:11 1.40001
5 *432:17 *432:4 0.124284
6 *432:13 *432:12 2.1128571
7 *432:5 *432:4 0.497135
8 *432:18 *432:13 1.40001
9 *432:5 *432:8 0.745703
10 *432:8 *432:18 0.248568
11 *432:9 *905:B0 1.40001
12 *432:15 *432:9 0.193051
13 *432:9 *432:8 1.86429
14 *432:6 *432:9 1.40001
15 *432:7 *432:6 0.994271
16 *432:16 *432:7 1.40001
17 *432:16 *906:Y 1.40001
18 *432:14 *432:16 0.193051
*END

*D_NET *433 0.000522832

*CONN
*I *904:Y O *C 28.275 59.305 *L 0 *D NAND2XL
*I *903:B0 I *C 30.305 59.015 *L 0.0028 *D OAI21X1

*CAP
1 *904:Y 3.68006e-05
2 *903:B0 3.68006e-05
3 *433:2 0.00016588
4 *433:3 0.00016588
5 *433:5 3.24496e-05
6 *433:6 4.25109e-05
7 *433:7 4.25109e-05

*RES
1 *433:6 *903:B0 1.39999998
2 *433:6 *433:7 0.248572
3 *433:2 *433:7 1.39999998
4 *433:3 *433:2 0.870001
5 *433:5 *433:3 1.39999998
6 *433:5 *904:Y 1.39999998
7 *433:4 *433:5 0.0299927
*END

*D_NET *434 0.000845479

*CONN
*I *902:Y O *C 5.655 55.535 *L 0 *D NAND2XL
*I *901:B0 I *C 13.195 55.825 *L 0.0028 *D OAI21X1

*CAP
1 *902:Y 3.67973e-05
2 *901:B0 3.67973e-05
3 *434:2 0.00035349
4 *434:3 0.00035349
5 *434:6 3.24498e-05
6 *434:7 3.24498e-05

*RES
1 *434:7 *901:B0 1.40002
2 *434:5 *434:7 0.19304
3 *434:2 *434:7 1.40002
4 *434:3 *434:2 3.35571432
5 *434:6 *434:3 1.40002
6 *434:6 *902:Y 1.40002
7 *434:4 *434:6 0.19304
*END

*D_NET *435 0.00054416

*CONN
*I *900:Y O *C 45.675 47.995 *L 0 *D NOR2XL
*I *863:D I *C 41.615 47.995 *L 0.0016 *D DFFQX1

*CAP
1 *900:Y 3.67994e-05
2 *863:D 3.67994e-05
3 *435:2 0.00020283
4 *435:3 0.00020283
5 *435:6 3.24509e-05
6 *435:7 3.24509e-05

*RES
1 *435:5 *435:7 0.193047
2 *435:7 *900:Y 1.4
3 *435:2 *435:7 1.4
4 *435:3 *435:2 1.74000001
5 *435:6 *863:D 1.4
6 *435:6 *435:3 1.4
7 *435:4 *435:6 0.193047
*END

*D_NET *436 0.000902131

*CONN
*I *899:Y O *C 37.01 61.275 *L 0 *D NOR2BXL
*I *876:D I *C 41.035 63.655 *L 0.0016 *D DFFQX1

*CAP
1 *899:Y 3.68014e-05
2 *876:D 3.68014e-05
3 *436:2 0.000236141
4 *436:3 0.000236820488
5 *436:5 3.24506e-05
6 *436:6 7.28512e-05
7 *436:7 8.83718e-05
8 *436:8 7.35305e-05
9 *436:9 8.83718e-05

*RES
1 *436:9 *876:D 1.39999998
2 *436:7 *436:9 0.745715
3 *436:8 *436:7 1.39999998
4 *436:6 *436:8 0.497144
5 *436:2 *436:6 0.124286
6 *436:3 *436:2 1.24286
7 *436:5 *436:3 1.39999998
8 *436:5 *899:Y 1.39999998
9 *436:4 *436:5 0.193051
*END

*D_NET *437 0.000292841

*CONN
*I *898:Y O *C 51.73 61.275 *L 0 *D NOR2BXL
*I *875:D I *C 51.185 63.655 *L 0.0016 *D DFFQX1

*CAP
1 *898:Y 3.68003e-05
2 *875:D 3.68003e-05
3 *437:2 6.768e-05
4 *437:3 5.32507e-05
5 *437:4 4.19402e-05
6 *437:5 5.63695e-05

*RES
1 *437:4 *898:Y 1.39999998
2 *437:3 *875:D 1.39999998
3 *437:4 *437:5 0.372858
4 *437:2 *437:3 0.497144
5 *437:2 *437:5 0.248572
*END

*D_NET *438 0.00070882

*CONN
*I *897:Y O *C 51.73 53.565 *L 0 *D NOR2BXL
*I *868:D I *C 54.665 51.185 *L 0.0016 *D DFFQX1

*CAP
1 *897:Y 3.68012e-05
2 *868:D 3.68012e-05
3 *438:2 6.09699e-05
4 *438:3 6.09699e-05
5 *438:4 9.225e-05
6 *438:5 9.225e-05
7 *438:6 0.00016439
8 *438:7 0.00016439

*RES
1 *438:3 *868:D 1.39999998
2 *438:3 *438:2 0.372858
3 *438:7 *438:2 1.39999998
4 *438:6 *438:7 1.24286
5 *438:4 *897:Y 1.39999998
6 *438:5 *438:6 1.39999998
7 *438:5 *438:4 0.497144
*END

*D_NET *439 0.000411571

*CONN
*I *896:Y O *C 10.885 43.355 *L 0 *D NOR2BX1
*I *874:D I *C 10.295 40.745 *L 0.0016 *D DFFQX1

*CAP
1 *896:Y 3.67997e-05
2 *874:D 3.67997e-05
3 *439:2 0.000134359
4 *439:3 0.00014885
5 *439:4 5.47612e-05

*RES
1 *439:4 *896:Y 1.39999998
2 *439:3 *439:4 0.248572
3 *439:2 *439:3 1.11857
4 *874:D *439:2 1.39999998
*END

*D_NET *440 0.000533351

*CONN
*I *895:Y O *C 29.135 61.045 *L 0 *D NOR2BX1
*I *872:D I *C 27.985 63.655 *L 0.0016 *D DFFQX1

*CAP
1 *895:Y 3.68017e-05
2 *872:D 3.68017e-05
3 *440:2 8.59603e-05
4 *440:3 0.000164051
5 *440:4 0.00020974

*RES
1 *440:3 *895:Y 1.39999998
2 *440:3 *440:4 1.11857
3 *440:2 *440:4 0.497144
4 *872:D *440:2 1.39999998
*END

*D_NET *441 0.00072682

*CONN
*I *894:Y O *C 25.965 61.045 *L 0 *D NOR2BX1
*I *871:D I *C 22.185 61.625 *L 0.0016 *D DFFQX1

*CAP
1 *894:Y 2.56602e-05
2 *871:D 3.67974e-05
3 *441:2 0.00027326
4 *441:3 0.00027326
5 *441:6 3.24485e-05
6 *441:7 5.29424e-05
7 *441:8 3.24485e-05

*RES
1 *441:7 *894:Y 0.386658
2 *441:5 *441:8 0.0299927
3 *441:8 *441:7 1.39999998
4 *441:2 *441:8 1.39999998
5 *441:3 *441:2 1.36714
6 *441:6 *871:D 1.39999998
7 *441:6 *441:3 1.39999998
8 *441:4 *441:6 0.193051
*END

*D_NET *442 0.00033992

*CONN
*I *893:Y O *C 62.17 56.055 *L 0 *D NOR2BXL
*I *857:D I *C 61.625 53.215 *L 0.0016 *D DFFQX1

*CAP
1 *893:Y 3.67997e-05
2 *857:D 3.67997e-05
3 *442:2 7.05897e-05
4 *442:3 8.50197266e-05
5 *442:4 6.25696e-05
6 *442:5 4.81409e-05

*RES
1 *442:5 *893:Y 1.39999998
2 *442:4 *442:5 0.497144
3 *442:3 *442:4 0.248572
4 *442:2 *442:3 0.621429
5 *857:D *442:2 1.39999998
*END

*D_NET *443 0.000580883

*CONN
*I *892:Y O *C 8.565 61.045 *L 0 *D NOR2BX1
*I *870:D I *C 6.235 63.655 *L 0.0016 *D DFFQX1

*CAP
1 *892:Y 3.68008e-05
2 *870:D 3.68008e-05
3 *443:2 5.40513e-05
4 *443:3 5.40513e-05
5 *443:4 8.77794e-05
6 *443:5 8.77794e-05
7 *443:6 0.00011181
8 *443:7 0.00011181

*RES
1 *443:5 *892:Y 1.39999998
2 *443:5 *443:4 0.745715
3 *443:7 *443:4 1.39999998
4 *443:2 *870:D 1.39999998
5 *443:6 *443:7 0.994287
6 *443:3 *443:2 0.372858
7 *443:3 *443:6 1.39999998
*END

*D_NET *444 0.000491661

*CONN
*I *891:Y O *C 15.19 61.275 *L 0 *D NOR2BXL
*I *869:D I *C 16.385 63.655 *L 0.0016 *D DFFQX1

*CAP
1 *891:Y 3.67997e-05
2 *869:D 3.67997e-05
3 *444:2 0.000123552
4 *444:3 0.00016924
5 *444:4 8.54787e-05
6 *444:5 3.97902e-05

*RES
1 *444:5 *869:D 1.39999998
2 *444:4 *444:5 0.248572
3 *444:3 *444:4 0.497144
4 *444:2 *444:3 0.621429
5 *891:Y *444:2 1.39999998
*END

*D_NET *445 0.000794579

*CONN
*I *890:Y O *C 15.215 55.825 *L 0 *D NOR2BX1
*I *867:D I *C 11.165 53.215 *L 0.0016 *D DFFQX1

*CAP
1 *890:Y 3.67992e-05
2 *867:D 3.67992e-05
3 *445:2 9.68312e-05
4 *445:3 9.68312e-05
5 *445:4 0.00019921
6 *445:5 0.00019921
7 *445:6 6.44488e-05
8 *445:7 6.44488e-05

*RES
1 *445:7 *890:Y 1.4
2 *445:6 *445:7 0.497154
3 *445:4 *445:6 1.4
4 *445:5 *445:4 1.74000001
5 *445:2 *445:5 1.4
6 *445:3 *445:2 0.621436
7 *867:D *445:3 1.4
*END

*D_NET *446 0.000486012

*CONN
*I *889:Y O *C 9.145 50.605 *L 0 *D NOR2BX1
*I *866:D I *C 11.745 51.185 *L 0.0016 *D DFFQX1

*CAP
1 *889:Y 1.28215e-05
2 *866:D 3.68013e-05
3 *446:3 3.31198e-05
4 *446:4 3.24501e-05
5 *446:5 0.00014631
6 *446:6 3.91008e-05
7 *446:7 0.00014631
8 *446:8 3.91008e-05

*RES
1 *446:8 *866:D 1.39999998
2 *446:6 *446:8 0.124286
3 *446:7 *446:6 1.39999998
4 *446:5 *446:7 1.11857
5 *446:3 *889:Y 0.193329
6 *446:4 *446:5 1.39999998
7 *446:4 *446:3 1.39999998
8 *446:2 *446:4 0.193051
*END

*D_NET *447 0.000732041

*CONN
*I *888:Y O *C 17 45.615 *L 0 *D NOR2BXL
*I *865:D I *C 11.745 45.965 *L 0.0016 *D DFFQX1

*CAP
1 *888:Y 3.67979e-05
2 *865:D 3.67979e-05
3 *447:4 3.24507e-05
4 *447:5 0.00029677
5 *447:6 3.24507e-05
6 *447:7 0.00029677

*RES
1 *447:3 *447:6 0.193074
2 *447:6 *888:Y 1.39999
3 *447:7 *447:6 1.39999
4 *447:5 *447:7 2.2371428
5 *447:4 *865:D 1.39999
6 *447:4 *447:5 1.39999
7 *447:2 *447:4 0.193074
*END

*D_NET *448 0.0006182

*CONN
*I *887:Y O *C 24.505 43.065 *L 0 *D NOR2BX2
*I *862:D I *C 25.665 37.555 *L 0.00164 *D DFFQXL

*CAP
1 *887:Y 3.67993e-05
2 *862:D 3.67993e-05
3 *448:2 0.00019541
4 *448:3 0.00019658
5 *448:4 7.68892e-05
6 *448:5 7.57194e-05

*RES
1 *448:4 *862:D 1.39999998
2 *448:4 *448:5 0.621429
3 *448:3 *887:Y 1.39999998
4 *448:2 *448:5 0.124286
5 *448:2 *448:3 1.36714
*END

*D_NET *449 0.000590199

*CONN
*I *886:Y O *C 23.645 48.575 *L 0 *D NOR2BX1
*I *861:D I *C 24.795 45.965 *L 0.0016 *D DFFQX1

*CAP
1 *886:Y 3.67994e-05
2 *861:D 3.67994e-05
3 *449:2 7.55995e-05
4 *449:3 7.55995e-05
5 *449:4 7.36205e-05
6 *449:5 7.36205e-05
7 *449:6 0.00010908
8 *449:7 0.00010908

*RES
1 *449:3 *861:D 1.39999998
2 *449:3 *449:2 0.497144
3 *449:4 *449:2 1.39999998
4 *449:5 *449:4 0.497144
5 *449:7 *886:Y 1.39999998
6 *449:6 *449:5 1.39999998
7 *449:6 *449:7 0.621429
*END

*D_NET *450 0.00103271

*CONN
*I *885:Y O *C 42.74 45.615 *L 0 *D NOR2BXL
*I *860:D I *C 39.295 42.775 *L 0.00164 *D DFFQXL

*CAP
1 *885:Y 3.67984e-05
2 *860:D 3.67984e-05
3 *450:2 0.000163719
4 *450:3 0.00014923
5 *450:4 5.56719e-05
6 *450:5 5.56719e-05
7 *450:6 0.00024003
8 *450:7 5.47599e-05
9 *450:8 0.00024003

*RES
1 *450:7 *885:Y 1.4
2 *450:7 *450:2 0.248564
3 *450:3 *450:2 0.994282
4 *450:8 *450:3 1.4
5 *450:6 *450:8 1.74000001
6 *450:4 *450:6 1.4
7 *450:5 *450:4 0.372846
8 *860:D *450:5 1.4
*END

*D_NET *451 0.000784801

*CONN
*I *884:Y O *C 22.195 43.355 *L 0 *D NOR2BX1
*I *873:D I *C 23.635 37.555 *L 0.0016 *D DFFQX1

*CAP
1 *884:Y 3.68011e-05
2 *873:D 3.68011e-05
3 *451:2 0.000183099
4 *451:3 0.000121632
5 *451:4 0.000172503
6 *451:5 0.00023397

*RES
1 *451:4 *873:D 1.4
2 *451:4 *451:5 1.74000001
3 *451:3 *884:Y 1.4
4 *451:2 *451:5 0.621436
5 *451:2 *451:3 0.745718
*END

*D_NET *452 0.000815821

*CONN
*I *883:Y O *C 29.735 61.045 *L 0 *D NOR2BX1
*I *858:D I *C 25.665 58.435 *L 0.0016 *D DFFQX1

*CAP
1 *883:Y 3.68005e-05
2 *858:D 3.68005e-05
3 *452:2 6.10918e-05
4 *452:3 6.10918e-05
5 *452:4 7.97397e-05
6 *452:5 7.97397e-05
7 *452:6 0.00023028
8 *452:7 0.00023028

*RES
1 *452:2 *883:Y 1.4
2 *452:3 *452:2 0.497154
3 *452:6 *452:3 1.4
4 *452:7 *452:6 1.74000001
5 *452:4 *452:7 1.4
6 *452:5 *452:4 0.621436
7 *858:D *452:5 1.4
*END

*D_NET *453 0.000588339

*CONN
*I *882:Y O *C 35.49 61.275 *L 0 *D NOR2BXL
*I *851:D I *C 37.265 63.655 *L 0.0016 *D DFFQX1

*CAP
1 *882:Y 3.6799e-05
2 *851:D 3.6799e-05
3 *453:2 5.9159e-05
4 *453:3 0.00013612
5 *453:4 0.00019821
6 *453:5 0.000121249

*RES
1 *453:5 *851:D 1.39999998
2 *453:4 *453:5 0.621429
3 *453:3 *453:4 0.745715
4 *453:2 *453:3 0.248572
5 *882:Y *453:2 1.39999998
*END

*D_NET *454 0.00032506

*CONN
*I *881:Y O *C 39.04 53.565 *L 0 *D NOR2BXL
*I *855:D I *C 39.295 51.185 *L 0.0016 *D DFFQX1

*CAP
1 *881:Y 3.67998e-05
2 *855:D 3.67998e-05
3 *454:2 6.88605e-05
4 *454:3 7.006e-05
5 *454:4 5.68701e-05
6 *454:5 5.56696e-05

*RES
1 *454:3 *855:D 1.39999998
2 *454:3 *454:2 0.497144
3 *454:4 *881:Y 1.39999998
4 *454:5 *454:2 0.124286
5 *454:5 *454:4 0.372858
*END

*D_NET *455 0.00061282

*CONN
*I *880:Y O *C 63.91 56.055 *L 0 *D NOR2BXL
*I *852:D I *C 66.555 58.435 *L 0.0016 *D DFFQX1

*CAP
1 *880:Y 3.67993e-05
2 *852:D 3.67993e-05
3 *455:2 6.74601e-05
4 *455:3 6.74601e-05
5 *455:4 0.00014883
6 *455:5 0.00014883
7 *455:6 5.33208e-05
8 *455:7 5.33208e-05

*RES
1 *455:7 *852:D 1.39999998
2 *455:6 *455:7 0.372858
3 *455:4 *455:6 1.39999998
4 *455:5 *455:4 1.11857
5 *455:2 *455:5 1.39999998
6 *455:3 *455:2 0.497144
7 *880:Y *455:3 1.39999998
*END

*D_NET *456 0.00106868

*CONN
*I *879:Y O *C 33.75 43.125 *L 0 *D NOR2BXL
*I *859:D I *C 38.715 40.455 *L 0.00216 *D DFFHQX1

*CAP
1 *879:Y 3.67997e-05
2 *859:D 3.67997e-05
3 *456:2 0.000118019
4 *456:3 0.00011919
5 *456:5 3.24493e-05
6 *456:6 8.15509e-05
7 *456:7 8.08693e-05
8 *456:8 0.00017797
9 *456:9 8.36392e-05
10 *456:10 0.00017797
11 *456:11 3.90999e-05
12 *456:12 8.43209e-05

*RES
1 *456:3 *859:D 1.39999998
2 *456:3 *456:2 1.24286
3 *456:11 *456:2 0.124286
4 *456:12 *456:11 1.39999998
5 *456:9 *456:12 0.372858
6 *456:9 *456:10 0.124286
7 *456:8 *456:10 1.24286
8 *456:7 *456:8 0.124286
9 *456:6 *456:7 0.372858
10 *456:5 *456:6 1.39999998
11 *456:5 *879:Y 1.39999998
12 *456:4 *456:5 0.193051
*END

*D_NET *457 0.000601541

*CONN
*I *878:Y O *C 60.72 61.275 *L 0 *D NOR2BXL
*I *854:D I *C 63.655 63.655 *L 0.0016 *D DFFQX1

*CAP
1 *878:Y 3.68002e-05
2 *854:D 3.68002e-05
3 *457:2 7.66297e-05
4 *457:3 7.66297e-05
5 *457:4 0.00013342
6 *457:5 0.00013342
7 *457:6 5.39197e-05
8 *457:7 5.39197e-05

*RES
1 *457:7 *854:D 1.39999998
2 *457:6 *457:7 0.372858
3 *457:4 *457:6 1.39999998
4 *457:5 *457:4 1.24286
5 *457:2 *457:5 1.39999998
6 *457:3 *457:2 0.497144
7 *878:Y *457:3 1.39999998
*END

*D_NET *458 0.000338121

*CONN
*I *877:Y O *C 57.24 61.275 *L 0 *D NOR2BXL
*I *853:D I *C 57.565 63.945 *L 0.00216 *D DFFHQX1

*CAP
1 *877:Y 3.67998e-05
2 *853:D 3.67998e-05
3 *458:2 6.53606e-05
4 *458:3 6.65601e-05
5 *458:4 6.57005e-05
6 *458:5 6.69e-05

*RES
1 *458:5 *853:D 1.39999998
2 *458:4 *458:5 0.621429
3 *458:2 *458:4 0.124286
4 *458:3 *458:2 0.372858
5 *877:Y *458:3 1.39999998
*END

*D_NET *459 0.000275319

*CONN
*I *850:Y O *C 61.95 50.835 *L 0 *D NOR2BXL
*I *838:D I *C 60.755 51.185 *L 0.0016 *D DFFQX1

*CAP
1 *850:Y 3.67995e-05
2 *838:D 3.67995e-05
3 *459:4 3.24497e-05
4 *459:5 6.841e-05
5 *459:6 3.24497e-05
6 *459:7 6.841e-05

*RES
1 *459:3 *459:6 0.193051
2 *459:6 *850:Y 1.39999998
3 *459:7 *459:6 1.39999998
4 *459:5 *459:7 0.497144
5 *459:4 *838:D 1.39999998
6 *459:4 *459:5 1.39999998
7 *459:2 *459:4 0.193051
*END

*D_NET *460 0.00133999

*CONN
*I *849:Y O *C 32.625 56.405 *L 0 *D NOR2XL
*I *844:A I *C 27.115 50.605 *L 0.00264 *D NAND3X1

*CAP
1 *849:Y 3.67993e-05
2 *844:A 1.28202e-05
3 *460:2 8.87012e-05
4 *460:3 7.42712e-05
5 *460:4 0.00017395
6 *460:5 0.00018838
7 *460:6 0.000179049
8 *460:7 0.000179049
9 *460:8 8.35702e-05
10 *460:9 8.28918e-05
11 *460:10 8.36392e-05
12 *460:11 8.43204e-05
13 *460:13 4.00992e-05
14 *460:14 3.24502e-05

*RES
1 *844:A *460:13 0.193335
2 *460:3 *460:13 1.39999
3 *460:3 *460:2 0.870009
4 *460:2 *460:5 0.24856
5 *460:5 *460:4 1.61571431
6 *460:11 *460:4 1.39999
7 *460:11 *460:10 0.372865
8 *460:10 *460:7 0.12428
9 *460:7 *460:6 1.24285
10 *460:9 *460:6 0.12428
11 *460:9 *460:8 0.372865
12 *460:14 *460:8 1.39999
13 *460:14 *849:Y 1.39999
14 *460:12 *460:14 0.193064
*END

*D_NET *461 0.0004506

*CONN
*I *848:Y O *C 29.145 50.315 *L 0 *D NOR4X1
*I *844:C I *C 26.535 50.605 *L 0.00285 *D NAND3X1

*CAP
1 *848:Y 3.68005e-05
2 *844:C 3.68005e-05
3 *461:2 0.000146280166
4 *461:3 6.91502e-05
5 *461:4 0.00011935
6 *461:5 4.222e-05

*RES
1 *461:5 *848:Y 1.39999998
2 *461:3 *844:C 1.39999998
3 *461:4 *461:5 0.248572
4 *461:2 *461:3 0.372858
5 *461:2 *461:4 0.745715
*END

*D_NET *462 0.00211177

*CONN
*I *847:Y O *C 20.14 56.3175 *L 0 *D OR4XL
*I *842:D I *C 35.525 55.825 *L 0.00286 *D NOR4BX1

*CAP
1 *847:Y 1.28128e-05
2 *842:D 3.68062e-05
3 *462:2 0.00057513
4 *462:3 0.00057513
5 *462:5 5.96412e-05
6 *462:6 4.00972e-05
7 *462:7 5.96412e-05
8 *462:8 3.24534e-05
9 *462:2 *394:7 6.136e-05
10 *462:3 *394:5 6.136e-05
11 *462:2 *394:5 6.077e-05
12 *462:3 *394:6 6.07700042e-05
13 *462:2 *487:8 0.0002379
14 *462:3 *487:9 0.000237899993

*RES
1 *847:Y *462:6 0.193286
2 *462:7 *462:6 1.40004
3 *462:5 *462:7 0.248609
4 *462:3 *462:5 1.40004
5 *462:3 *462:2 6.46285725
6 *462:8 *842:D 1.40004
7 *462:8 *462:2 1.40004
8 *462:4 *462:8 0.193089
*END

*D_NET *463 0.00133037

*CONN
*I *846:Y O *C 20.155 45.095 *L 0 *D NOR4X1
*I *844:B I *C 26.825 50.315 *L 0.00285 *D NAND3X1

*CAP
1 *846:Y 3.68004e-05
2 *844:B 3.68004e-05
3 *463:2 0.000318630313
4 *463:3 0.000304137
5 *463:4 0.00024905
6 *463:5 0.00024905
7 *463:7 3.24489e-05
8 *463:8 4.44823e-05
9 *463:9 5.8971e-05

*RES
1 *463:8 *844:B 1.4
2 *463:8 *463:9 0.248587
3 *463:2 *463:9 0.248587
4 *463:3 *463:2 1.98858
5 *463:4 *463:3 1.4
6 *463:5 *463:4 2.4857142
7 *463:7 *463:5 1.4
8 *463:7 *846:Y 1.4
9 *463:6 *463:7 0.193059
*END

*D_NET *464 0.00050822

*CONN
*I *845:Y O *C 54.375 55.535 *L 0 *D NOR4X1
*I *841:C I *C 50.895 55.825 *L 0.00163 *D NAND4BXL

*CAP
1 *845:Y 3.68003e-05
2 *841:C 3.27999e-05
3 *464:4 6.00796e-05
4 *464:5 3.24504e-05
5 *464:6 8.419e-05
6 *464:7 8.331e-05
7 *464:8 7.26294e-05
8 *464:9 3.24504e-05
9 *464:10 7.35094e-05

*RES
1 *464:3 *464:9 0.193051
2 *464:9 *845:Y 1.39999998
3 *464:10 *464:9 1.39999998
4 *464:8 *464:10 0.497144
5 *464:7 *464:8 0.124286
6 *464:4 *841:C 0.386658
7 *464:6 *464:7 0.621429
8 *464:5 *464:4 1.39999998
9 *464:5 *464:6 1.39999998
10 *464:2 *464:5 0.193051
*END

*D_NET *465 0.00034278

*CONN
*I *844:Y O *C 26.245 51.185 *L 0 *D NAND3X1
*I *843:C I *C 25.665 53.505 *L 0.00278 *D NOR3X1

*CAP
1 *844:Y 2.58199e-05
2 *843:C 3.67997e-05
3 *465:2 4.61205e-05
4 *465:3 0.00011702
5 *465:4 0.00011702

*RES
1 *465:4 *843:C 1.39999998
2 *465:3 *465:4 0.994287
3 *465:2 *465:3 1.39999998
4 *465:2 *844:Y 0.386658
*END

*D_NET *466 0.00136518

*CONN
*I *843:Y O *C 25.375 54.085 *L 0 *D NOR3X1
*I *842:AN I *C 33.785 56.115 *L 0.00176 *D NOR4BX1

*CAP
1 *843:Y 3.68014e-05
2 *842:AN 3.68014e-05
3 *466:2 4.6213e-05
4 *466:3 4.6213e-05
5 *466:4 0.0004694
6 *466:5 0.0004694
7 *466:6 0.00013018
8 *466:7 0.00013018

*RES
1 *466:7 *842:AN 1.4
2 *466:6 *466:7 0.621412
3 *466:4 *466:6 1.4
4 *466:5 *466:4 3.60428572
5 *466:2 *466:5 1.4
6 *466:3 *466:2 0.248587
7 *843:Y *466:3 1.4
*END

*D_NET *467 0.00210645

*CONN
*I *842:Y O *C 35.525 56.695 *L 0 *D NOR4BX1
*I *841:D I *C 50.605 55.825 *L 0.00174 *D NAND4BXL

*CAP
1 *842:Y 3.68041e-05
2 *841:D 3.68041e-05
3 *467:2 3.15889e-05
4 *467:3 3.15889e-05
5 *467:4 0.000651
6 *467:5 0.000650315
7 *467:6 0.000317608
8 *467:7 0.000318293
9 *467:10 3.24531e-05

*RES
1 *467:3 *841:D 1.39998
2 *467:9 *467:3 0.0643352
3 *467:3 *467:2 0.12429
4 *467:4 *467:2 1.39998
5 *467:5 *467:4 4.10142851
6 *467:5 *467:6 0.12429
7 *467:7 *467:6 2.23715
8 *467:10 *467:7 1.39998
9 *467:10 *842:Y 1.39998
10 *467:8 *467:10 0.193068
*END

*D_NET *468 0.00025115

*CONN
*I *841:Y O *C 50.895 56.405 *L 0 *D NAND4BXL
*I *840:B I *C 49.445 56.115 *L 0.00171 *D NOR2XL

*CAP
1 *841:Y 3.68e-05
2 *840:B 3.68e-05
3 *468:2 6.86408e-05
4 *468:3 3.85804e-05
5 *468:4 7.033e-05

*RES
1 *468:3 *840:B 1.39999998
2 *468:4 *841:Y 1.39999998
3 *468:2 *468:3 0.248572
4 *468:2 *468:4 0.372858
*END

*D_NET *469 0.00207266

*CONN
*I *840:Y O *C 49.735 56.405 *L 0 *D NOR2XL
*I *839:A1 I *C 44.515 48.865 *L 0.00163 *D AO21X1

*CAP
1 *840:Y 3.6799e-05
2 *839:A1 3.6799e-05
3 *469:2 0.000307309
4 *469:3 0.000277248
5 *469:4 0.000294891
6 *469:5 0.000294891
7 *469:6 0.000355539102
8 *469:7 0.000355539102
9 *469:8 4.17902e-05
10 *469:9 7.18511e-05

*RES
1 *469:8 *840:Y 1.40001
2 *469:8 *469:9 0.248568
3 *469:2 *469:9 0.372851
4 *469:3 *469:2 1.61572
5 *469:6 *469:3 1.40001
6 *469:7 *469:6 1.86428571
7 *469:4 *469:7 1.40001
8 *469:5 *469:4 1.86428571
9 *839:A1 *469:5 1.40001
*END

*D_NET *470 0.000460698

*CONN
*I *961:Y O *C 49.445 50.605 *L 0 *D AOI2BB1X1
*I *897:AN I *C 50.895 53.505 *L 0.00174 *D NOR2BXL

*CAP
1 *961:Y 3.67999e-05
2 *897:AN 3.67999e-05
3 *470:2 5.82896e-05
4 *470:3 0.00013525
5 *470:4 0.000135259873
6 *470:5 5.82999e-05

*RES
1 *470:5 *897:AN 1.39999998
2 *470:4 *470:5 0.372858
3 *470:3 *470:4 0.745715
4 *470:2 *470:3 0.372858
5 *961:Y *470:2 1.39999998
*END

*D_NET *471 0.00027204

*CONN
*I *953:Y O *C 49.445 61.625 *L 0 *D OA21XL
*I *898:AN I *C 50.895 61.335 *L 0.00174 *D NOR2BXL

*CAP
1 *953:Y 2.56602e-05
2 *898:AN 3.67997e-05
3 *471:2 4.59602e-05
4 *471:3 3.907e-05
5 *471:4 4.274e-05
6 *471:5 2.711e-05
7 *471:6 5.47e-05

*RES
1 *471:6 *898:AN 1.39999998
2 *471:4 *471:6 0.248572
3 *471:4 *471:5 0.124286
4 *471:3 *471:5 0.124286
5 *471:2 *471:3 1.39999998
6 *953:Y *471:2 0.386658
*END

*D_NET *472 0.00052122

*CONN
*I *785:A I *C 41.035 61.045 *L 0.00155 *D DLY2X1
*I *938:Y O *C 44.225 60.755 *L 0 *D OAI21X1

*CAP
1 *785:A 1.28186e-05
2 *938:Y 3.67998e-05
3 *472:4 4.01003e-05
4 *472:5 3.24505e-05
5 *472:6 0.0001833
6 *472:7 3.24505e-05
7 *472:8 0.0001833

*RES
1 *472:3 *472:7 0.193051
2 *472:7 *938:Y 1.39999998
3 *472:8 *472:7 1.39999998
4 *785:A *472:4 0.193329
5 *472:6 *472:8 1.24286
6 *472:5 *472:4 1.39999998
7 *472:5 *472:6 1.39999998
8 *472:2 *472:5 0.193051
*END

*D_NET *473 0.000354099

*CONN
*I *948:Y O *C 60.175 55.535 *L 0 *D OA21X1
*I *893:AN I *C 61.335 56.115 *L 0.00174 *D NOR2BXL

*CAP
1 *948:Y 1.28198e-05
2 *893:AN 3.68e-05
3 *473:2 8.33397363e-05
4 *473:3 8.33397363e-05
5 *473:6 2.92195e-05
6 *473:7 4.36798e-05
7 *473:8 3.24495e-05
8 *473:9 3.24495e-05

*RES
1 *473:9 *893:AN 1.39999998
2 *473:5 *473:9 0.193051
3 *473:2 *473:9 1.39999998
4 *948:Y *473:6 0.193329
5 *473:3 *473:2 0.372858
6 *473:6 *473:7 0.193329
7 *473:8 *473:3 1.39999998
8 *473:8 *473:7 1.39999998
9 *473:4 *473:8 0.193051
*END

*D_NET *474 0.000318789

*CONN
*I *786:A I *C 65.105 53.795 *L 0.00155 *D DLY2X1
*I *931:Y O *C 64.235 55.535 *L 0 *D OAI21X1

*CAP
1 *786:A 3.68002e-05
2 *931:Y 3.68002e-05
3 *474:2 7.03298e-05
4 *474:3 7.23998e-05
5 *474:4 0.00010246

*RES
1 *474:3 *786:A 1.39999998
2 *474:3 *474:4 0.745715
3 *474:2 *474:4 0.372858
4 *931:Y *474:2 1.39999998
*END

*D_NET *475 0.000355669

*CONN
*I *943:Y O *C 54.955 61.625 *L 0 *D OA21XL
*I *877:AN I *C 56.405 61.335 *L 0.00174 *D NOR2BXL

*CAP
1 *943:Y 2.56603e-05
2 *877:AN 1.28199e-05
3 *475:2 4.59601e-05
4 *475:3 3.90694e-05
5 *475:4 2.80398e-05
6 *475:5 5.92993e-05
7 *475:6 4.00998e-05
8 *475:7 3.73306e-05
9 *475:8 6.739e-05

*RES
1 *877:AN *475:6 0.193329
2 *475:7 *475:6 1.39999998
3 *475:7 *475:8 0.248572
4 *475:5 *475:8 0.372858
5 *475:4 *475:5 0.124286
6 *475:3 *475:4 0.124286
7 *475:2 *475:3 1.39999998
8 *943:Y *475:2 0.386658
*END

*D_NET *476 0.00719932

*CONN
*I *821:A I *C 5.945 48.285 *L 0.00184 *D DLY1X4
*I *924:Y O *C 59.015 60.755 *L 0 *D OAI21X1

*CAP
1 *821:A 3.67998e-05
2 *924:Y 3.67998e-05
3 *476:2 0.000677221
4 *476:3 0.00083826
5 *476:4 0.000631416
6 *476:5 7.88695e-05
7 *476:6 0.000124674
8 *476:7 0.000834359
9 *476:8 0.000757536
10 *476:9 0.000516758
11 *476:10 0.000757536
12 *476:11 9.33745e-05
13 *476:12 0.000516758
14 *476:13 0.0001967
15 *476:14 9.72758e-05
16 *476:15 0.0001967
17 *476:15 *91:2 4.451e-05
18 *476:13 *91:3 4.451e-05
19 *476:10 *91:4 0.00018482
20 *476:8 *91:5 0.000184819993
21 *476:10 *139:90 1.671e-05
22 *476:8 *139:91 1.671e-05
23 *476:10 *139:91 6.287e-05
24 *476:8 *139:92 6.287e-05
25 *476:10 *139:92 1.909e-05
26 *476:8 *139:93 1.909e-05
27 *476:10 *139:93 7.614e-05
28 *476:8 *139:94 7.614e-05

*RES
1 *476:13 *924:Y 1.39995
2 *476:13 *476:15 1.86419
3 *476:14 *476:15 1.39995
4 *476:11 *476:14 1.1599
5 *476:11 *476:12 0.193434
6 *476:9 *476:12 7.53995
7 *476:9 *476:10 0.193434
8 *476:8 *476:10 15.2733335
9 *476:7 *476:8 0.193434
10 *476:5 *821:A 1.39995
11 *476:3 *476:7 12.18
12 *476:5 *476:6 0.621318
13 *476:4 *476:3 1.39995
14 *476:2 *476:6 0.497101
15 *476:2 *476:4 7.08433
*END

*D_NET *477 0.0009721

*CONN
*I *942:Y O *C 45.385 56.405 *L 0 *D OA21XL
*I *881:AN I *C 39.875 53.505 *L 0.00174 *D NOR2BXL

*CAP
1 *942:Y 3.68007e-05
2 *881:AN 3.68007e-05
3 *477:2 6.40602e-05
4 *477:3 6.33792e-05
5 *477:4 6.45101e-05
6 *477:5 6.45101e-05
7 *477:6 0.000159390391
8 *477:7 0.000158709
9 *477:8 8.20896e-05
10 *477:9 8.20896e-05
11 *477:10 7.98788e-05
12 *477:11 7.98788e-05

*RES
1 *477:11 *942:Y 1.39999998
2 *477:10 *477:11 0.621429
3 *477:2 *477:10 1.39999998
4 *477:3 *477:2 0.372858
5 *477:3 *477:9 0.124286
6 *477:8 *477:9 0.994287
7 *477:7 *477:8 0.124286
8 *477:6 *477:7 0.994287
9 *477:5 *477:6 1.39999998
10 *477:4 *477:5 0.372858
11 *881:AN *477:4 1.39999998
*END

*D_NET *478 0.0002739

*CONN
*I *910:Y O *C 33.205 61.625 *L 0 *D OA21XL
*I *882:AN I *C 34.655 61.335 *L 0.00174 *D NOR2BXL

*CAP
1 *910:Y 2.56602e-05
2 *882:AN 3.67997e-05
3 *478:2 4.59602e-05
4 *478:3 3.907e-05
5 *478:4 4.36699e-05
6 *478:5 2.80399e-05
7 *478:6 5.47e-05

*RES
1 *478:6 *882:AN 1.39999998
2 *478:4 *478:6 0.248572
3 *478:4 *478:5 0.124286
4 *478:3 *478:5 0.124286
5 *478:2 *478:3 1.39999998
6 *910:Y *478:2 0.386658
*END

*D_NET *479 0.00152783

*CONN
*I *770:A I *C 39.295 63.945 *L 0.00172 *D CLKBUFX2
*I *903:Y O *C 30.595 59.305 *L 0 *D OAI21X1

*CAP
1 *770:A 3.6797e-05
2 *903:Y 3.6797e-05
3 *479:2 8.37338e-05
4 *479:3 9.8164e-05
5 *479:4 0.00042218
6 *479:5 0.00042218
7 *479:6 5.46995e-05
8 *479:7 5.97178e-05
9 *479:8 0.000134568
10 *479:9 0.000126921
11 *479:10 5.20711e-05

*RES
1 *479:10 *770:A 1.4
2 *479:9 *479:10 0.372872
3 *479:8 *479:9 0.87
4 *479:7 *479:8 0.621436
5 *479:4 *479:7 1.4
6 *479:5 *479:4 3.48000002
7 *479:2 *479:5 1.4
8 *479:3 *479:2 0.497128
9 *479:6 *479:3 0.248564
10 *903:Y *479:6 1.4
*END

*D_NET *480 0.00044398

*CONN
*I *936:Y O *C 33.495 45.965 *L 0 *D OA21XL
*I *879:AN I *C 32.915 43.065 *L 0.00174 *D NOR2BXL

*CAP
1 *936:Y 3.68002e-05
2 *879:AN 3.68002e-05
3 *480:2 9.1229e-05
4 *480:3 0.00012138
5 *480:4 9.39591e-05
6 *480:5 6.38099e-05

*RES
1 *480:5 *936:Y 1.39999998
2 *480:4 *480:5 0.372858
3 *480:3 *480:4 0.372858
4 *480:2 *480:3 0.621429
5 *879:AN *480:2 1.39999998
*END

*D_NET *481 0.00100852

*CONN
*I *808:A I *C 35.815 48.285 *L 0.00172 *D CLKBUFX2
*I *919:Y O *C 37.555 45.095 *L 0 *D OAI21X1

*CAP
1 *808:A 3.67985e-05
2 *919:Y 1.31395e-05
3 *481:2 0.0002582
4 *481:3 0.0002582
5 *481:4 3.159e-05
6 *481:5 3.159e-05
7 *481:6 0.000169293
8 *481:7 0.000169293
9 *481:9 4.04192e-05

*RES
1 *919:Y *481:9 0.193329
2 *481:3 *481:9 1.39999998
3 *481:3 *481:2 1.36714
4 *481:6 *481:2 1.39999998
5 *481:7 *481:6 0.870001
6 *481:4 *481:7 1.39999998
7 *481:5 *808:A 1.39999998
8 *481:5 *481:4 0.124286
9 *481:8 *481:5 0.0643219
*END

*D_NET *482 0.000894949

*CONN
*I *807:A I *C 23.055 45.675 *L 0.00172 *D CLKBUFX2
*I *930:Y O *C 25.955 47.995 *L 0 *D OA21XL

*CAP
1 *807:A 3.67999e-05
2 *930:Y 2.66196e-05
3 *482:3 3.24492e-05
4 *482:4 0.00018066
5 *482:5 0.00019542
6 *482:6 0.00018066
7 *482:7 4.69205e-05
8 *482:8 0.00019542

*RES
1 *482:7 *930:Y 0.386658
2 *482:8 *482:7 1.39999998
3 *482:5 *482:8 0.994287
4 *482:6 *482:5 1.39999998
5 *482:4 *482:6 0.994287
6 *482:3 *807:A 1.39999998
7 *482:3 *482:4 1.39999998
8 *482:2 *482:3 0.193051
*END

*D_NET *483 0.00140868

*CONN
*I *804:A I *C 35.235 45.675 *L 0.00172 *D CLKBUFX2
*I *916:Y O *C 27.115 43.645 *L 0 *D OAI21XL

*CAP
1 *804:A 3.67994e-05
2 *916:Y 3.67994e-05
3 *483:2 8.59888e-05
4 *483:3 8.59888e-05
5 *483:4 0.000117809
6 *483:5 0.000117809
7 *483:6 4.45907e-05
8 *483:7 4.45907e-05
9 *483:8 0.000299498
10 *483:9 0.00030018
11 *483:11 8.08725e-05
12 *483:12 3.81002e-05
13 *483:13 8.15504e-05
14 *483:14 3.81002e-05

*RES
1 *483:3 *916:Y 1.39999
2 *483:3 *483:2 0.621425
3 *483:9 *483:2 1.39999
4 *483:9 *483:8 1.61571431
5 *483:8 *483:7 0.12428
6 *483:7 *483:6 0.24856
7 *483:6 *483:5 0.12428
8 *483:5 *483:4 1.24285
9 *483:11 *483:4 0.12428
10 *483:11 *483:13 0.372865
11 *483:12 *483:13 1.39999
12 *483:14 *804:A 1.39999
13 *483:12 *483:14 0.12428
14 *483:10 *483:14 0.182858
*END

*D_NET *484 0.00187119

*CONN
*I *805:A I *C 6.525 35.235 *L 0.00172 *D CLKBUFX2
*I *908:S O *C 11.24 48.79 *L 0 *D ADDHX1

*CAP
1 *805:A 3.67999e-05
2 *908:S 5.23227e-05
3 *484:2 0.00053039
4 *484:3 0.000529216
5 *484:4 0.000137116
6 *484:5 0.000137116
7 *484:6 3.90984e-05
8 *484:7 0.000117052
9 *484:8 0.000116373
10 *484:9 5.11978e-05
11 *484:10 5.18776e-05
12 *484:11 7.26206e-05

*RES
1 *484:11 *908:S 0.773319
2 *484:4 *484:11 1.39999
3 *484:5 *484:4 0.994316
4 *484:10 *484:5 1.39999
5 *484:9 *484:10 0.372834
6 *484:8 *484:9 0.124255
7 *484:7 *484:8 0.994316
8 *484:2 *484:7 1.39999
9 *484:3 *484:2 4.4742856
10 *484:6 *484:3 0.124255
11 *805:A *484:6 1.39999
*END

*D_NET *485 0.00184092

*CONN
*I *806:A I *C 12.905 61.335 *L 0.00172 *D CLKBUFX2
*I *905:Y O *C 8.265 51.185 *L 0 *D OA21XL

*CAP
1 *806:A 3.6803e-05
2 *905:Y 3.6803e-05
3 *485:2 0.00054224
4 *485:3 0.00054224
5 *485:4 0.000108738
6 *485:5 0.000108738
7 *485:6 0.000232675
8 *485:7 0.000232675

*RES
1 *485:4 *806:A 1.4
2 *485:5 *485:4 0.745705
3 *485:6 *485:5 1.4
4 *485:7 *485:6 1.98858
5 *485:2 *485:7 1.4
6 *485:3 *485:2 3.60428572
7 *905:Y *485:3 1.4
*END

*D_NET *486 0.00486288

*CONN
*I *799:A I *C 41.615 53.505 *L 0.00172 *D CLKBUFX2
*I *901:Y O *C 13.485 55.535 *L 0 *D OAI21X1

*CAP
1 *799:A 3.67941e-05
2 *901:Y 3.67941e-05
3 *486:2 0.000626059
4 *486:3 0.0006425
5 *486:4 9.37843e-05
6 *486:5 7.80196e-05
7 *486:6 0.000171588
8 *486:7 0.000170912
9 *486:8 8.16863e-05
10 *486:9 8.16863e-05
11 *486:11 3.2451e-05
12 *486:6 *487:4 0.00019591
13 *486:7 *487:5 0.00019591
14 *486:2 *487:6 1.914e-05
15 *486:3 *487:7 1.914e-05
16 *486:2 *487:8 0.0007738
17 *486:3 *487:9 0.0007738
18 *486:8 *487:2 1.182e-05
19 *486:9 *487:3 1.18199661e-05
20 *486:6 *493:92 2.402e-05
21 *486:7 *493:93 2.402e-05
22 *486:6 *493:93 7.28e-05
23 *486:7 *493:94 7.28e-05
24 *486:8 *493:97 6.31e-06
25 *486:9 *493:98 6.30999588e-06
26 *486:2 *100:8 0.0001343
27 *486:3 *100:9 0.0001343
28 *486:2 *100:9 3.643e-05
29 *486:3 *100:10 3.64299926e-05
30 *486:2 *415:9 0.00013077
31 *486:3 *415:10 0.00013077

*RES
1 *486:9 *799:A 1.39993
2 *486:9 *486:8 0.86996
3 *486:6 *486:8 1.39993
4 *486:7 *486:6 2.48574
5 *486:2 *486:7 0.12428
6 *486:3 *486:2 8.82428551
7 *486:3 *486:4 0.24856
8 *486:5 *486:4 0.74568
9 *486:11 *486:5 1.39993
10 *486:11 *901:Y 1.39993
11 *486:10 *486:11 0.193085
*END

*D_NET *487 0.00495589

*CONN
*I *800:A I *C 40.455 45.675 *L 0.00172 *D CLKBUFX2
*I *922:Y O *C 16.095 56.405 *L 0 *D OA21XL

*CAP
1 *800:A 3.67977e-05
2 *922:Y 3.67977e-05
3 *487:2 0.000496098359
4 *487:3 0.000496098359
5 *487:4 0.000197728
6 *487:5 0.000197046
7 *487:6 5.02419e-05
8 *487:7 5.112e-05
9 *487:8 0.000442283
10 *487:9 0.000442079
11 *487:11 3.24449e-05
12 *487:4 *486:6 0.00019591
13 *487:5 *486:7 0.00019591
14 *487:6 *486:2 1.914e-05
15 *487:7 *486:3 1.914e-05
16 *487:8 *486:2 0.0007738
17 *487:9 *486:3 0.0007738
18 *487:2 *486:8 1.182e-05
19 *487:3 *486:9 1.18199661e-05
20 *487:8 *462:2 0.0002379
21 *487:9 *462:3 0.000237899993

*RES
1 *487:3 *800:A 1.40002
2 *487:3 *487:2 4.35001
3 *487:4 *487:2 1.40002
4 *487:5 *487:4 2.11282
5 *487:8 *487:5 0.124255
6 *487:9 *487:8 7.82999992
7 *487:9 *487:6 0.124255
8 *487:7 *487:6 0.497141
9 *487:11 *487:7 1.40002
10 *487:11 *922:Y 1.40002
11 *487:10 *487:11 0.193074
*END

*D_NET *488 0.00541852

*CONN
*I *798:A I *C 22.185 30.015 *L 0.00172 *D CLKBUFX2
*I *911:Y O *C 10.295 60.755 *L 0 *D OAI21X1

*CAP
1 *798:A 3.67923e-05
2 *911:Y 3.67923e-05
3 *488:2 0.000245702
4 *488:3 0.000244531
5 *488:4 0.000357217
6 *488:5 0.000358388
7 *488:6 0.000209164
8 *488:7 0.000209164
9 *488:8 8.72851e-05
10 *488:9 8.72851e-05
11 *488:10 7.343e-05
12 *488:11 7.46343e-05
13 *488:12 0.00072408
14 *488:13 0.000259845
15 *488:14 0.000722887
16 *488:15 0.000259845
17 *488:15 *493:57 3.867e-05
18 *488:13 *493:58 3.867e-05
19 *488:15 *493:58 3.06e-05
20 *488:13 *493:59 3.06e-05
21 *488:15 *493:59 9.525e-05
22 *488:13 *493:60 9.525e-05
23 *488:14 *493:61 2.528e-05
24 *488:12 *493:62 2.528e-05
25 *488:14 *493:63 1.452e-05
26 *488:12 *493:64 1.452e-05
27 *488:14 *493:65 2.381e-05
28 *488:12 *493:28 2.381e-05
29 *488:14 *493:28 9.58e-06
30 *488:12 *493:29 9.58e-06
31 *488:14 *493:66 2.97e-06
32 *488:12 *493:67 2.97000192e-06
33 *488:15 *187:29 0.00041302
34 *488:13 *187:22 0.00041302
35 *488:15 *187:22 6.203e-05
36 *488:13 *187:23 6.20300103e-05

*RES
1 *488:5 *798:A 1.40003
2 *488:5 *488:4 1.86429
3 *488:7 *488:4 0.124255
4 *488:7 *488:6 1.98854
5 *488:6 *488:9 0.124255
6 *488:9 *488:8 0.994316
7 *488:3 *488:8 0.124255
8 *488:3 *488:2 1.49143
9 *488:15 *488:2 1.40003
10 *488:13 *488:15 4.84714
11 *488:12 *488:13 1.40003
12 *488:12 *488:14 5.96571445
13 *488:11 *911:Y 1.40003
14 *488:10 *488:14 0.124255
15 *488:10 *488:11 0.86997
*END

*D_NET *489 0.00654269

*CONN
*I *820:A I *C 7.105 11.745 *L 0.00178 *D DLY1X1
*I *918:Y O *C 25.085 61.625 *L 0 *D OA21XL

*CAP
1 *820:A 3.68054e-05
2 *918:Y 3.68054e-05
3 *489:2 0.000118713
4 *489:3 0.000128846
5 *489:4 0.000484385
6 *489:5 0.000484385
7 *489:6 0.000115203
8 *489:7 0.000116116
9 *489:8 4.11203e-05
10 *489:9 0.000415432
11 *489:10 0.00041452
12 *489:11 4.46195e-05
13 *489:12 4.46195e-05
14 *489:13 0.000154499
15 *489:14 0.000154499
16 *489:15 0.000214006
17 *489:16 0.000214006
18 *489:17 0.000702545
19 *489:18 0.000703424844
20 *489:20 5.12528e-05
21 *489:21 0.000212729
22 *489:22 3.38e-05
23 *489:23 0.000213609
24 *489:24 0.000703371
25 *489:25 0.000703371

*RES
1 *489:20 *820:A 1.40005
2 *489:20 *489:3 0.372872
3 *489:3 *489:2 0.87
4 *489:2 *489:8 0.372872
5 *489:7 *489:8 1.40005
6 *489:7 *489:6 0.87
7 *489:5 *489:6 0.124255
8 *489:5 *489:4 4.47426
9 *489:4 *489:12 0.124255
10 *489:12 *489:11 0.248617
11 *489:11 *489:10 0.124255
12 *489:10 *489:9 2.23713
13 *489:18 *489:9 1.40005
14 *489:18 *489:17 6.71138
15 *489:17 *489:16 0.124255
16 *489:16 *489:15 1.86426
17 *489:24 *489:15 0.124255
18 *489:24 *489:25 6.96000004
19 *489:21 *489:25 0.124255
20 *489:13 *918:Y 1.40005
21 *489:21 *489:23 1.98862
22 *489:14 *489:13 1.86426
23 *489:22 *489:23 1.40005
24 *489:22 *489:14 1.40005
25 *489:19 *489:22 0.193074
*END

*D_NET *490 0.00356806

*CONN
*I *802:A I *C 42.775 56.115 *L 0.00172 *D CLKBUFX2
*I *907:Y O *C 20.445 59.305 *L 0 *D OAI21X1

*CAP
1 *802:A 3.67965e-05
2 *907:Y 3.67965e-05
3 *490:2 0.00052629
4 *490:3 0.000525615
5 *490:4 0.000498432
6 *490:5 0.000499106
7 *490:7 3.24519e-05
8 *490:8 0.000127607
9 *490:9 0.000127607
10 *490:2 *44:11 3.341e-05
11 *490:3 *44:12 3.341e-05
12 *490:2 *44:13 3.677e-05
13 *490:3 *44:14 3.677e-05
14 *490:2 *44:14 0.00017172
15 *490:3 *44:15 0.00017171999
16 *490:2 *427:6 4.974e-05
17 *490:3 *427:7 4.974e-05
18 *490:2 *427:7 4.549e-05
19 *490:3 *427:8 4.54900006e-05
20 *490:4 *366:13 0.00015959
21 *490:5 *366:14 0.000159590004
22 *490:2 *379:7 8.196e-05
23 *490:3 *379:8 8.19599973e-05

*RES
1 *490:8 *802:A 1.40003
2 *490:8 *490:9 0.87003
3 *490:2 *490:9 1.40003
4 *490:3 *490:2 6.58714294
5 *490:3 *490:4 0.124333
6 *490:5 *490:4 2.98289
7 *490:7 *490:5 1.40003
8 *490:7 *907:Y 1.40003
9 *490:6 *490:7 0.193083
*END

*D_NET *491 0.00183389

*CONN
*I *801:A I *C 23.925 30.015 *L 0.00172 *D CLKBUFX2
*I *923:Y O *C 21.315 42.775 *L 0 *D OA21XL

*CAP
1 *801:A 3.67975e-05
2 *923:Y 1.28193e-05
3 *491:2 0.0001547
4 *491:3 0.00015353
5 *491:4 0.0002558
6 *491:5 0.000287120703
7 *491:6 0.00015257
8 *491:7 0.00015257
9 *491:8 0.000152697
10 *491:9 7.65392e-05
11 *491:10 4.01009e-05
12 *491:11 0.000152697
13 *491:12 7.65392e-05
14 *491:13 2.94897e-05
15 *491:14 6.08108e-05
16 *491:15 3.90977e-05

*RES
1 *491:15 *801:A 1.39999
2 *491:13 *491:15 0.124278
3 *491:13 *491:14 0.124278
4 *491:5 *491:14 0.372857
5 *491:5 *491:4 1.36715
6 *491:4 *491:7 0.124278
7 *491:7 *491:6 1.24285
8 *491:3 *491:6 0.124278
9 *491:3 *491:2 1.49142861
10 *491:12 *491:2 1.39999
11 *491:9 *491:12 0.497135
12 *491:8 *491:9 1.39999
13 *491:8 *491:11 1.24285
14 *491:10 *491:11 1.39999
15 *923:Y *491:10 0.193324
*END

*D_NET *492 0.00230688

*CONN
*I *803:A I *C 6.235 32.625 *L 0.00172 *D CLKBUFX2
*I *912:Y O *C 16.675 43.645 *L 0 *D OAI21X1

*CAP
1 *803:A 3.67965e-05
2 *912:Y 1.28209e-05
3 *492:2 0.00064237
4 *492:3 0.00064237
5 *492:4 3.15916e-05
6 *492:5 3.15916e-05
7 *492:6 0.000438107
8 *492:7 0.000438107
9 *492:9 3.31207e-05

*RES
1 *492:3 *803:A 1.39999
2 *492:3 *492:2 4.4742856
3 *492:7 *492:2 1.39999
4 *492:9 *912:Y 0.193347
5 *492:7 *492:6 4.35003
6 *492:4 *492:9 1.39999
7 *492:5 *492:6 1.39999
8 *492:5 *492:4 0.124255
9 *492:8 *492:5 0.0643124
*END

*D_NET *493 0.0205582

*CONN
*I *969:C0 I *C 19.285 50.605 *L 0.00281 *D AOI211X1
*I *968:C0 I *C 41.035 56.115 *L 0.00171 *D AOI211XL
*I *900:B I *C 45.965 48.285 *L 0.00171 *D NOR2XL
*I *899:B I *C 37.265 61.045 *L 0.00175 *D NOR2BXL
*I *898:B I *C 51.475 61.045 *L 0.00175 *D NOR2BXL
*I *897:B I *C 51.475 53.795 *L 0.00175 *D NOR2BXL
*I *896:B I *C 11.165 43.355 *L 0.0028 *D NOR2BX1
*I *895:B I *C 28.855 61.045 *L 0.0028 *D NOR2BX1
*I *894:B I *C 26.245 61.045 *L 0.0028 *D NOR2BX1
*I *893:B I *C 61.915 55.825 *L 0.00175 *D NOR2BXL
*I *892:B I *C 8.845 61.045 *L 0.0028 *D NOR2BX1
*I *891:B I *C 14.935 61.045 *L 0.00175 *D NOR2BXL
*I *890:B I *C 14.935 55.825 *L 0.0028 *D NOR2BX1
*I *889:B I *C 9.425 50.605 *L 0.0028 *D NOR2BX1
*I *888:B I *C 17.255 45.385 *L 0.00175 *D NOR2BXL
*I *887:B I *C 25.665 43.065 *L 0.00538 *D NOR2BX2
*I *886:B I *C 23.925 48.575 *L 0.0028 *D NOR2BX1
*I *885:B I *C 42.485 45.385 *L 0.00175 *D NOR2BXL
*I *884:B I *C 22.475 43.355 *L 0.0028 *D NOR2BX1
*I *883:B I *C 30.015 61.045 *L 0.0028 *D NOR2BX1
*I *882:B I *C 35.235 61.045 *L 0.00175 *D NOR2BXL
*I *881:B I *C 39.295 53.795 *L 0.00175 *D NOR2BXL
*I *880:B I *C 63.655 55.825 *L 0.00175 *D NOR2BXL
*I *879:B I *C 33.495 43.355 *L 0.00175 *D NOR2BXL
*I *878:B I *C 60.465 61.045 *L 0.00175 *D NOR2BXL
*I *877:B I *C 56.985 61.045 *L 0.00175 *D NOR2BXL
*I *850:AN I *C 62.785 50.895 *L 0.00174 *D NOR2BXL
*I *839:Y O *C 43.355 48.865 *L 0 *D AO21X1

*CAP
1 *969:C0 3.67964e-05
2 *968:C0 3.67964e-05
3 *900:B 3.67964e-05
4 *899:B 3.67964e-05
5 *898:B 3.67964e-05
6 *897:B 3.67964e-05
7 *896:B 3.67964e-05
8 *895:B 3.67964e-05
9 *894:B 3.67964e-05
10 *893:B 3.67964e-05
11 *892:B 3.67964e-05
12 *891:B 3.67964e-05
13 *890:B 3.67964e-05
14 *889:B 3.67964e-05
15 *888:B 3.67964e-05
16 *887:B 3.67964e-05
17 *886:B 3.67964e-05
18 *885:B 3.67964e-05
19 *884:B 3.67964e-05
20 *883:B 3.67964e-05
21 *882:B 3.67964e-05
22 *881:B 3.67964e-05
23 *880:B 3.67964e-05
24 *879:B 3.67964e-05
25 *878:B 3.67964e-05
26 *877:B 3.67964e-05
27 *850:AN 3.67964e-05
28 *839:Y 2.56575e-05
29 *493:28 0.000133544
30 *493:29 9.95936e-05
31 *493:30 0.000118255
32 *493:31 0.000131355
33 *493:32 0.000296698
34 *493:33 0.00028723
35 *493:34 0.00028723
36 *493:35 9.74345e-05
37 *493:36 9.86018e-05
38 *493:37 0.00016925
39 *493:38 8.25191e-05
40 *493:39 9.66487e-05
41 *493:40 9.66487e-05
42 *493:41 0.000152343
43 *493:42 0.000152343
44 *493:43 8.42892e-05
45 *493:44 8.42892e-05
46 *493:45 0.000174201
47 *493:46 0.000138061
48 *493:47 0.000166289
49 *493:48 0.000163696
50 *493:49 7.22805e-05
51 *493:50 7.22805e-05
52 *493:51 3.15932e-05
53 *493:52 3.15932e-05
54 *493:53 0.000303771
55 *493:54 0.000303771
56 *493:55 6.67645e-05
57 *493:56 5.57401e-05
58 *493:57 0.000180251
59 *493:58 0.000165588
60 *493:59 0.000288985
61 *493:60 0.000233237
62 *493:61 0.000117431
63 *493:62 0.000117431
64 *493:63 4.37773e-05
65 *493:64 4.261e-05
66 *493:65 6.5231e-05
67 *493:66 3.6064e-05
68 *493:67 3.6064e-05
69 *493:68 0.000119186
70 *493:69 0.000237281
71 *493:70 0.000385634
72 *493:71 8.10543e-05
73 *493:72 0.000152145
74 *493:73 5.74796e-05
75 *493:74 5.68006e-05
76 *493:75 0.000182159
77 *493:76 0.000155212
78 *493:77 0.000155212
79 *493:78 7.76516e-05
80 *493:79 7.76516e-05
81 *493:80 0.000134147
82 *493:81 0.000134147
83 *493:82 9.15676e-05
84 *493:83 9.01409e-05
85 *493:84 3.2379e-05
86 *493:85 0.000283598
87 *493:86 8.596e-05
88 *493:87 8.596e-05
89 *493:88 0.000199622
90 *493:89 0.000199622
91 *493:90 0.000102546
92 *493:91 0.000102546
93 *493:92 6.39951e-05
94 *493:93 0.000158469
95 *493:94 0.000128288
96 *493:95 8.34194e-05
97 *493:96 8.34194e-05
98 *493:97 9.86552e-05
99 *493:98 9.86858e-05
100 *493:99 0.000231582
101 *493:100 0.000346625
102 *493:101 0.000142066
103 *493:102 0.000120498
104 *493:103 0.000104866
105 *493:104 4.232e-05
106 *493:105 0.000172385
107 *493:106 0.000267043
108 *493:107 0.000128456
109 *493:108 0.000338057
110 *493:109 0.000250914
111 *493:110 0.000332709
112 *493:111 5.86927e-05
113 *493:112 0.000135841
114 *493:113 5.91809e-05
115 *493:114 5.91809e-05
116 *493:115 9.16515e-05
117 *493:116 9.25289e-05
118 *493:117 0.000110557
119 *493:118 0.000169151
120 *493:119 9.08428e-05
121 *493:120 0.000307829
122 *493:121 0.0002005
123 *493:122 0.0002005
124 *493:123 0.00011499
125 *493:124 0.00011499
126 *493:125 0.000161933
127 *493:126 0.000161933
128 *493:127 7.52941e-05
129 *493:128 7.46075e-05
130 *493:129 7.50805e-05
131 *493:130 0.000137725
132 *493:131 0.00010324
133 *493:137 0.00049999
134 *493:138 0.00049999
135 *493:139 3.86198e-05
136 *493:140 3.97947e-05
137 *493:141 9.90291e-05
138 *493:142 9.90291e-05
139 *493:143 3.24553e-05
140 *493:144 0.000276991
141 *493:145 0.000276991
142 *493:146 6.55743e-05
143 *493:147 4.59593e-05
144 *493:148 0.000149162
145 *493:149 0.0001137
146 *493:150 5.70905e-05
147 *493:151 5.82959e-05
148 *493:152 5.1254e-05
149 *493:153 5.00791e-05
150 *493:154 6.62305e-05
151 *493:155 5.89139e-05
152 *493:156 5.6503e-05
153 *493:157 5.80136e-05
154 *493:158 4.44792e-05
155 *493:159 5.71286e-05
156 *493:160 3.06624e-05
157 *493:161 3.06624e-05
158 *493:162 7.31503e-05
159 *493:163 0.000111099
160 *493:164 5.49085e-05
161 *493:165 8.75164e-05
162 *493:166 9.76939e-05
163 *493:167 0.000127754
164 *493:121 *387:8 6.755e-05
165 *493:122 *387:9 6.755e-05
166 *493:125 *387:8 3.147e-05
167 *493:126 *387:9 3.147e-05
168 *493:117 *387:8 2.568e-05
169 *493:118 *387:9 2.568e-05
170 *493:118 *387:8 1.998e-05
171 *493:119 *387:9 1.998e-05
172 *493:127 *387:8 8.56e-06
173 *493:128 *387:9 8.56e-06
174 *493:129 *387:8 8.56e-06
175 *493:130 *387:9 8.56e-06
176 *493:130 *387:8 1.006e-05
177 *493:131 *387:9 1.00600025e-05
178 *493:92 *486:6 2.402e-05
179 *493:93 *486:7 2.402e-05
180 *493:93 *486:6 7.28e-05
181 *493:94 *486:7 7.28e-05
182 *493:97 *486:8 6.31e-06
183 *493:98 *486:9 6.30999588e-06
184 *493:57 *488:15 3.867e-05
185 *493:58 *488:13 3.867e-05
186 *493:58 *488:15 3.06e-05
187 *493:59 *488:13 3.06e-05
188 *493:59 *488:15 9.525e-05
189 *493:60 *488:13 9.525e-05
190 *493:61 *488:14 2.528e-05
191 *493:62 *488:12 2.528e-05
192 *493:63 *488:14 1.452e-05
193 *493:64 *488:12 1.452e-05
194 *493:65 *488:14 2.381e-05
195 *493:28 *488:12 2.381e-05
196 *493:28 *488:14 9.58e-06
197 *493:29 *488:12 9.58e-06
198 *493:66 *488:14 2.97e-06
199 *493:67 *488:12 2.97000192e-06
200 *493:53 *113:16 0.00032779
201 *493:54 *113:14 0.00032778999

*RES
1 *493:166 *850:AN 1.40002
2 *493:166 *493:167 0.870009
3 *493:167 *493:48 0.37284
4 *493:47 *880:B 1.40002
5 *493:48 *493:47 1.36718
6 *493:164 *893:B 1.40002
7 *493:47 *493:101 0.37284
8 *493:164 *493:100 0.37284
9 *493:100 *493:101 0.74568
10 *493:49 *878:B 1.40002
11 *493:100 *493:99 1.49143
12 *493:50 *493:49 0.37284
13 *493:165 *493:99 1.40002
14 *493:163 *493:50 1.40002
15 *493:163 *493:165 0.621425
16 *493:161 *877:B 1.40002
17 *493:136 *493:161 0.182833
18 *493:162 *493:163 0.497169
19 *493:160 *493:161 0.124255
20 *493:162 *493:112 0.248585
21 *493:108 *493:160 1.40002
22 *493:108 *493:112 0.994265
23 *493:109 *493:108 1.86427
24 *493:159 *493:109 0.124255
25 *493:157 *493:159 0.497169
26 *493:158 *898:B 1.40002
27 *493:156 *493:157 1.40002
28 *493:156 *493:158 0.248585
29 *493:155 *493:156 0.248585
30 *493:102 *493:155 0.248585
31 *493:103 *493:102 0.870009
32 *493:103 *493:88 0.124255
33 *493:89 *493:88 1.24285
34 *493:89 *493:154 0.124255
35 *493:45 *897:B 1.40002
36 *493:45 *493:154 0.74568
37 *493:46 *493:45 0.994265
38 *493:46 *493:80 0.124255
39 *493:81 *493:80 1.49143
40 *493:153 *493:81 0.124255
41 *493:78 *900:B 1.40002
42 *493:152 *493:153 0.37284
43 *493:79 *493:78 0.621425
44 *493:69 *493:152 1.40002
45 *493:70 *493:79 1.40002
46 *493:70 *493:69 2.36144
47 *493:56 *885:B 1.40002
48 *493:75 *493:70 1.49143
49 *493:56 *493:55 0.497169
50 *493:55 *493:75 1.40002
51 *493:55 *493:104 0.248585
52 *493:104 *493:146 0.124255
53 *493:147 *839:Y 0.386671
54 *493:146 *493:148 0.621425
55 *493:148 *493:147 1.40002
56 *493:148 *493:149 1.36718
57 *493:98 *493:149 0.124255
58 *493:98 *493:97 0.994265
59 *493:97 *493:150 0.124255
60 *493:95 *968:C0 1.40002
61 *493:150 *493:151 0.37284
62 *493:91 *881:B 1.40002
63 *493:96 *493:95 0.37284
64 *493:92 *493:151 1.40002
65 *493:91 *493:90 0.74568
66 *493:93 *493:96 1.40002
67 *493:93 *493:92 0.74568
68 *493:94 *493:90 1.40002
69 *493:94 *493:93 0.74568
70 *493:144 *493:94 1.40002
71 *493:144 *493:145 2.61003
72 *493:143 *899:B 1.40002
73 *493:135 *493:143 0.19304
74 *493:105 *493:145 1.40002
75 *493:106 *493:143 1.40002
76 *493:106 *493:105 0.870009
77 *493:107 *493:106 0.870009
78 *493:44 *882:B 1.40002
79 *493:44 *493:107 1.40002
80 *493:44 *493:43 0.74568
81 *493:86 *879:B 1.40002
82 *493:127 *493:43 1.40002
83 *493:87 *493:86 0.621425
84 *493:128 *493:127 0.37284
85 *493:53 *493:87 1.40002
86 *493:128 *493:125 0.124255
87 *493:54 *493:53 3.35571
88 *493:40 *883:B 1.40002
89 *493:126 *493:125 1.49143
90 *493:38 *493:54 1.40002
91 *493:42 *895:B 1.40002
92 *493:40 *493:39 0.74568
93 *493:129 *493:126 0.124255
94 *493:37 *887:B 1.40002
95 *493:38 *493:37 0.497169
96 *493:42 *493:41 0.74568
97 *493:130 *493:39 1.40002
98 *493:130 *493:129 0.37284
99 *493:37 *493:68 0.994265
100 *493:141 *894:B 1.40002
101 *493:131 *493:41 1.40002
102 *493:131 *493:130 0.497169
103 *493:36 *884:B 1.40002
104 *493:73 *493:68 1.40002
105 *493:141 *493:142 0.870009
106 *493:131 *493:117 0.124255
107 *493:36 *493:35 0.74568
108 *493:76 *886:B 1.40002
109 *493:74 *493:73 0.37284
110 *493:118 *493:142 1.40002
111 *493:118 *493:117 1.11859
112 *493:139 *493:35 0.124255
113 *493:77 *493:76 1.24285
114 *493:74 *493:71 0.124255
115 *493:119 *493:118 0.870009
116 *493:33 *969:C0 1.40002
117 *493:139 *493:140 0.248585
118 *493:72 *493:77 1.40002
119 *493:72 *493:71 0.37284
120 *493:119 *493:121 0.124255
121 *493:51 *888:B 1.40002
122 *493:134 *493:51 0.182833
123 *493:34 *493:33 2.36144
124 *493:57 *493:140 1.40002
125 *493:57 *493:72 0.74568
126 *493:122 *493:121 2.23711
127 *493:52 *493:51 0.124255
128 *493:58 *493:34 1.40002
129 *493:58 *493:57 1.24285
130 *493:122 *493:123 0.124255
131 *493:59 *493:52 1.40002
132 *493:59 *493:58 0.870009
133 *493:124 *493:123 0.994265
134 *493:29 *896:B 1.40002
135 *493:60 *493:59 2.61003
136 *493:115 *493:124 0.124255
137 *493:29 *493:28 0.994265
138 *493:28 *493:60 1.40002
139 *493:85 *890:B 1.40002
140 *493:116 *493:115 0.74568
141 *493:28 *493:65 0.621425
142 *493:114 *892:B 1.40002
143 *493:32 *891:B 1.40002
144 *493:85 *493:32 2.23711
145 *493:30 *493:116 1.40002
146 *493:65 *493:62 0.124255
147 *493:114 *493:113 0.248585
148 *493:32 *493:31 0.248585
149 *493:31 *493:30 0.74568
150 *493:62 *493:61 1.24285
151 *493:111 *493:113 1.40002
152 *493:120 *493:31 1.40002
153 *493:64 *493:61 0.124255
154 *493:111 *493:110 0.37284
155 *493:110 *493:120 2.23711
156 *493:64 *493:63 0.37284
157 *493:138 *493:110 1.40002
158 *493:66 *889:B 1.40002
159 *493:133 *493:66 0.182833
160 *493:82 *493:63 1.40002
161 *493:137 *493:138 4.8471427
162 *493:67 *493:66 0.124255
163 *493:83 *493:82 0.621425
164 *493:83 *493:137 1.40002
165 *493:84 *493:67 1.40002
166 *493:84 *493:83 0.124255
167 *493:132 *493:84 0.0643465
*END

*D_NET *494 0.00121922

*CONN
*I *968:Y O *C 40.565 55.535 *L 0 *D AOI211XL
*I *856:D I *C 37.265 51.185 *L 0.0016 *D DFFQX1

*CAP
1 *968:Y 3.6802e-05
2 *856:D 3.6802e-05
3 *494:2 0.000193409
4 *494:3 0.000193409
5 *494:4 0.000272429375
6 *494:5 0.000272429375
7 *494:6 0.000106972
8 *494:7 0.000106972

*RES
1 *494:7 *968:Y 1.4
2 *494:6 *494:7 0.621436
3 *494:4 *494:6 1.4
4 *494:5 *494:4 1.74000001
5 *494:2 *494:5 1.4
6 *494:3 *494:2 1.61572
7 *856:D *494:3 1.4
*END

*D_NET *495 0.000582041

*CONN
*I *969:Y O *C 18.705 50.315 *L 0 *D AOI211X1
*I *864:D I *C 20.735 47.995 *L 0.0016 *D DFFQX1

*CAP
1 *969:Y 3.68006e-05
2 *864:D 3.68006e-05
3 *495:2 0.00019484
4 *495:3 0.000149031
5 *495:4 5.93811e-05
6 *495:5 0.00010519

*RES
1 *495:4 *864:D 1.39999998
2 *495:4 *495:5 0.248572
3 *495:3 *969:Y 1.39999998
4 *495:2 *495:5 0.497144
5 *495:2 *495:3 0.870001
*END

